%%MatrixMarket matrix coordinate real general
% migrated from Universal blas/matrices/bcsstk05.hpp (universal#1210)
153 153 2423
1 1 314313.9
1 4 -86857.87
1 5 56340.24
1 7 -35149.55
1 8 93732.12
1 9 -35149.55
1 10 -35149.55
1 11 -93732.12
1 12 35149.55
1 13 -86857.87
1 14 -56340.24
1 16 -35149.55
1 17 -93732.12
1 18 -35149.55
1 19 -35149.55
1 20 93732.12
1 21 35149.55
2 2 1072899.0
2 3 4.656613e-10
2 4 56340.24
2 5 -36545.02
2 7 93732.12
2 8 -249952.3
2 9 93732.12
2 10 -93732.12
2 11 -249952.3
2 12 93732.12
2 13 -56340.24
2 14 -36545.02
2 16 -93732.12
2 17 -249952.3
2 18 -93732.12
2 19 93732.12
2 20 -249952.3
2 21 -93732.12
3 2 4.656613e-10
3 3 140598.2
3 7 -35149.55
3 8 93732.12
3 9 -35149.55
3 10 35149.55
3 11 93732.12
3 12 -35149.55
3 16 -35149.55
3 17 -93732.12
3 18 -35149.55
3 19 35149.55
3 20 -93732.12
3 21 -35149.55
4 1 -86857.87
4 2 56340.24
4 4 569453.8
4 5 -56340.24
4 7 -241298.0
4 9 77560.06
4 19 -241298.0
4 21 -77560.06
5 1 56340.24
5 2 -36545.02
5 4 -56340.24
5 5 36545.02
6 6 49860.04
6 7 77560.06
6 9 -24930.02
6 19 -77560.06
6 21 -24930.02
7 1 -35149.55
7 2 93732.12
7 3 -35149.55
7 4 -241298.0
7 6 77560.06
7 7 830285.6
7 8 11901.73
7 9 -42410.51
7 10 -435000.0
7 25 -118838.1
7 26 -105633.9
8 1 93732.12
8 2 -249952.3
8 3 93732.12
8 7 11901.73
8 8 1609829.0
8 9 11901.73
8 23 -1172083.0
8 25 -105633.9
8 26 -93896.76
8 32 -93896.76
8 33 -105633.9
9 1 -35149.55
9 2 93732.12
9 3 -35149.55
9 4 77560.06
9 6 -24930.02
9 7 -42410.51
9 8 11901.73
9 9 560213.9
9 21 -381296.3
9 32 -105633.9
9 33 -118838.1
10 1 -35149.55
10 2 -93732.12
10 3 35149.55
10 7 -435000.0
10 10 965094.2
10 11 -11901.73
10 12 -92398.08
10 13 -241298.0
10 15 -77560.06
10 19 -134808.6
10 21 134808.6
10 22 -118838.1
10 23 105633.9
11 1 -93732.12
11 2 -249952.3
11 3 93732.12
11 10 -11901.73
11 11 1609829.0
11 12 11901.73
11 22 105633.9
11 23 -93896.76
11 26 -1172083.0
11 29 -93896.76
11 30 -105633.9
12 1 35149.55
12 2 93732.12
12 3 -35149.55
12 10 -92398.08
12 11 11901.73
12 12 695022.5
12 13 -77560.06
12 15 -24930.02
12 18 -381296.3
12 19 134808.6
12 21 -134808.6
12 29 -105633.9
12 30 -118838.1
13 1 -86857.87
13 2 -56340.24
13 10 -241298.0
13 12 -77560.06
13 13 569453.8
13 14 56340.24
13 16 -241298.0
13 18 77560.06
14 1 -56340.24
14 2 -36545.02
14 13 56340.24
14 14 36545.02
15 10 -77560.06
15 12 -24930.02
15 15 49860.04
15 16 77560.06
15 18 -24930.02
16 1 -35149.55
16 2 -93732.12
16 3 -35149.55
16 13 -241298.0
16 15 77560.06
16 16 830285.6
16 17 -11901.73
16 18 -42410.51
16 19 -435000.0
16 31 -118838.1
16 32 105633.9
17 1 -93732.12
17 2 -249952.3
17 3 -93732.12
17 16 -11901.73
17 17 1609829.0
17 18 -11901.73
17 26 -93896.76
17 27 105633.9
17 29 -1172083.0
17 31 105633.9
17 32 -93896.76
18 1 -35149.55
18 2 -93732.12
18 3 -35149.55
18 12 -381296.3
18 13 77560.06
18 15 -24930.02
18 16 -42410.51
18 17 -11901.73
18 18 560213.9
18 26 105633.9
18 27 -118838.1
19 1 -35149.55
19 2 93732.12
19 3 35149.55
19 4 -241298.0
19 6 -77560.06
19 10 -134808.6
19 12 134808.6
19 16 -435000.0
19 19 965094.2
19 20 11901.73
19 21 -92398.08
19 28 -118838.1
19 29 -105633.9
20 1 93732.12
20 2 -249952.3
20 3 -93732.12
20 19 11901.73
20 20 1609829.0
20 21 -11901.73
20 23 -93896.76
20 24 105633.9
20 28 -105633.9
20 29 -93896.76
20 32 -1172083.0
21 1 35149.55
21 2 -93732.12
21 3 -35149.55
21 4 -77560.06
21 6 -24930.02
21 9 -381296.3
21 10 134808.6
21 12 -134808.6
21 19 -92398.08
21 20 -11901.73
21 21 695022.5
21 23 105633.9
21 24 -118838.1
22 10 -118838.1
22 11 105633.9
22 22 291023.0
22 23 -23709.71
22 24 -13336.71
22 34 -53346.85
22 35 23709.71
22 36 13336.71
22 40 -118838.1
22 41 -105633.9
23 8 -1172083.0
23 10 105633.9
23 11 -93896.76
23 20 -93896.76
23 21 105633.9
23 22 -23709.71
23 23 2730291.0
23 24 5927.428
23 34 23709.71
23 35 -10537.65
23 36 -5927.428
23 38 -1172083.0
23 40 -105633.9
23 41 -93896.76
23 50 -93896.76
23 51 -105633.9
24 20 105633.9
24 21 -118838.1
24 22 -13336.71
24 23 5927.428
24 24 241010.3
24 34 13336.71
24 35 -5927.428
24 36 -3334.178
24 50 -105633.9
24 51 -118838.1
25 7 -118838.1
25 8 -105633.9
25 25 291023.0
25 26 23709.71
25 27 13336.71
25 37 -118838.1
25 38 105633.9
25 43 -53346.85
25 44 -23709.71
25 45 -13336.71
26 7 -105633.9
26 8 -93896.76
26 11 -1172083.0
26 17 -93896.76
26 18 105633.9
26 25 23709.71
26 26 2730291.0
26 27 5927.428
26 37 105633.9
26 38 -93896.76
26 41 -1172083.0
26 43 -23709.71
26 44 -10537.65
26 45 -5927.428
26 47 -93896.76
26 48 -105633.9
27 17 105633.9
27 18 -118838.1
27 25 13336.71
27 26 5927.428
27 27 241010.3
27 43 -13336.71
27 44 -5927.428
27 45 -3334.178
27 47 -105633.9
27 48 -118838.1
28 19 -118838.1
28 20 -105633.9
28 28 291023.0
28 29 23709.71
28 30 -13336.71
28 43 -53346.85
28 44 -23709.71
28 45 13336.71
28 49 -118838.1
28 50 105633.9
29 11 -93896.76
29 12 -105633.9
29 17 -1172083.0
29 19 -105633.9
29 20 -93896.76
29 28 23709.71
29 29 2730291.0
29 30 -5927.428
29 41 -93896.76
29 42 105633.9
29 43 -23709.71
29 44 -10537.65
29 45 5927.428
29 47 -1172083.0
29 49 105633.9
29 50 -93896.76
30 11 -105633.9
30 12 -118838.1
30 28 -13336.71
30 29 -5927.428
30 30 241010.3
30 41 105633.9
30 42 -118838.1
30 43 13336.71
30 44 5927.428
30 45 -3334.178
31 16 -118838.1
31 17 105633.9
31 31 291023.0
31 32 -23709.71
31 33 13336.71
31 34 -53346.85
31 35 23709.71
31 36 -13336.71
31 46 -118838.1
31 47 -105633.9
32 8 -93896.76
32 9 -105633.9
32 16 105633.9
32 17 -93896.76
32 20 -1172083.0
32 31 -23709.71
32 32 2730291.0
32 33 -5927.428
32 34 23709.71
32 35 -10537.65
32 36 5927.428
32 38 -93896.76
32 39 105633.9
32 46 -105633.9
32 47 -93896.76
32 50 -1172083.0
33 8 -105633.9
33 9 -118838.1
33 31 13336.71
33 32 -5927.428
33 33 241010.3
33 34 -13336.71
33 35 5927.428
33 36 -3334.178
33 38 105633.9
33 39 -118838.1
34 22 -53346.85
34 23 23709.71
34 24 13336.71
34 31 -53346.85
34 32 23709.71
34 33 -13336.71
34 34 503881.5
34 35 -47419.42
34 37 -198593.9
34 39 49648.47
34 49 -198593.9
34 51 -49648.47
35 22 23709.71
35 23 -10537.65
35 24 -5927.428
35 31 23709.71
35 32 -10537.65
35 33 5927.428
35 34 -47419.42
35 35 21075.3
36 22 13336.71
36 23 -5927.428
36 24 -3334.178
36 31 -13336.71
36 32 5927.428
36 33 -3334.178
36 36 31492.59
36 37 49648.47
36 39 -12412.12
36 49 -49648.47
36 51 -12412.12
37 25 -118838.1
37 26 105633.9
37 34 -198593.9
37 36 49648.47
37 37 934052.4
37 38 55806.56
37 39 -49648.47
37 40 -435000.0
37 55 -181620.5
37 56 -161440.4
38 23 -1172083.0
38 25 105633.9
38 26 -93896.76
38 32 -93896.76
38 33 105633.9
38 37 55806.56
38 38 2818965.0
38 39 55806.56
38 53 -1172083.0
38 55 -161440.4
38 56 -143502.6
38 62 -143502.6
38 63 -161440.4
39 32 105633.9
39 33 -118838.1
39 34 49648.47
39 36 -12412.12
39 37 -49648.47
39 38 55806.56
39 39 694167.0
39 51 -381296.3
39 62 -161440.4
39 63 -181620.5
40 22 -118838.1
40 23 -105633.9
40 37 -435000.0
40 40 1068861.0
40 41 -55806.56
40 42 -85160.13
40 43 -198593.9
40 45 -49648.47
40 49 -134808.6
40 51 134808.6
40 52 -181620.5
40 53 161440.4
41 22 -105633.9
41 23 -93896.76
41 26 -1172083.0
41 29 -93896.76
41 30 105633.9
41 40 -55806.56
41 41 2818965.0
41 42 55806.56
41 52 161440.4
41 53 -143502.6
41 56 -1172083.0
41 59 -143502.6
41 60 -161440.4
42 29 105633.9
42 30 -118838.1
42 40 -85160.13
42 41 55806.56
42 42 828975.6
42 43 -49648.47
42 45 -12412.12
42 48 -381296.3
42 49 134808.6
42 51 -134808.6
42 59 -161440.4
42 60 -181620.5
43 25 -53346.85
43 26 -23709.71
43 27 -13336.71
43 28 -53346.85
43 29 -23709.71
43 30 13336.71
43 40 -198593.9
43 42 -49648.47
43 43 503881.5
43 44 47419.42
43 46 -198593.9
43 48 49648.47
44 25 -23709.71
44 26 -10537.65
44 27 -5927.428
44 28 -23709.71
44 29 -10537.65
44 30 5927.428
44 43 47419.42
44 44 21075.3
45 25 -13336.71
45 26 -5927.428
45 27 -3334.178
45 28 13336.71
45 29 5927.428
45 30 -3334.178
45 40 -49648.47
45 42 -12412.12
45 45 31492.59
45 46 49648.47
45 48 -12412.12
46 31 -118838.1
46 32 -105633.9
46 43 -198593.9
46 45 49648.47
46 46 934052.4
46 47 -55806.56
46 48 -49648.47
46 49 -435000.0
46 61 -181620.5
46 62 161440.4
47 26 -93896.76
47 27 -105633.9
47 29 -1172083.0
47 31 -105633.9
47 32 -93896.76
47 46 -55806.56
47 47 2818965.0
47 48 -55806.56
47 56 -143502.6
47 57 161440.4
47 59 -1172083.0
47 61 161440.4
47 62 -143502.6
48 26 -105633.9
48 27 -118838.1
48 42 -381296.3
48 43 49648.47
48 45 -12412.12
48 46 -49648.47
48 47 -55806.56
48 48 694167.0
48 56 161440.4
48 57 -181620.5
49 28 -118838.1
49 29 105633.9
49 34 -198593.9
49 36 -49648.47
49 40 -134808.6
49 42 134808.6
49 46 -435000.0
49 49 1068861.0
49 50 55806.56
49 51 -85160.13
49 58 -181620.5
49 59 -161440.4
50 23 -93896.76
50 24 -105633.9
50 28 105633.9
50 29 -93896.76
50 32 -1172083.0
50 49 55806.56
50 50 2818965.0
50 51 -55806.56
50 53 -143502.6
50 54 161440.4
50 58 -161440.4
50 59 -143502.6
50 62 -1172083.0
51 23 -105633.9
51 24 -118838.1
51 34 -49648.47
51 36 -12412.12
51 39 -381296.3
51 40 134808.6
51 42 -134808.6
51 49 -85160.13
51 50 -55806.56
51 51 828975.6
51 53 161440.4
51 54 -181620.5
52 40 -181620.5
52 41 161440.4
52 52 419981.1
52 53 -32422.96
52 54 -18237.91
52 64 -56740.18
52 65 32422.96
52 66 18237.91
52 70 -181620.5
52 71 -161440.4
53 38 -1172083.0
53 40 161440.4
53 41 -143502.6
53 50 -143502.6
53 51 161440.4
53 52 -32422.96
53 53 2936704.0
53 54 10421.67
53 64 32422.96
53 65 -18527.41
53 66 -10421.67
53 68 -1172083.0
53 70 -161440.4
53 71 -143502.6
53 80 -143502.6
53 81 -161440.4
54 50 161440.4
54 51 -181620.5
54 52 -18237.91
54 53 10421.67
54 54 369103.1
54 64 18237.91
54 65 -10421.67
54 66 -5862.187
54 80 -161440.4
54 81 -181620.5
55 37 -181620.5
55 38 -161440.4
55 55 419981.1
55 56 32422.96
55 57 18237.91
55 67 -181620.5
55 68 161440.4
55 73 -56740.18
55 74 -32422.96
55 75 -18237.91
56 37 -161440.4
56 38 -143502.6
56 41 -1172083.0
56 47 -143502.6
56 48 161440.4
56 55 32422.96
56 56 2936704.0
56 57 10421.67
56 67 161440.4
56 68 -143502.6
56 71 -1172083.0
56 73 -32422.96
56 74 -18527.41
56 75 -10421.67
56 77 -143502.6
56 78 -161440.4
57 47 161440.4
57 48 -181620.5
57 55 18237.91
57 56 10421.67
57 57 369103.1
57 73 -18237.91
57 74 -10421.67
57 75 -5862.187
57 77 -161440.4
57 78 -181620.5
58 49 -181620.5
58 50 -161440.4
58 58 419981.1
58 59 32422.96
58 60 -18237.91
58 73 -56740.18
58 74 -32422.96
58 75 18237.91
58 79 -181620.5
58 80 161440.4
59 41 -143502.6
59 42 -161440.4
59 47 -1172083.0
59 49 -161440.4
59 50 -143502.6
59 58 32422.96
59 59 2936704.0
59 60 -10421.67
59 71 -143502.6
59 72 161440.4
59 73 -32422.96
59 74 -18527.41
59 75 10421.67
59 77 -1172083.0
59 79 161440.4
59 80 -143502.6
60 41 -161440.4
60 42 -181620.5
60 58 -18237.91
60 59 -10421.67
60 60 369103.1
60 71 161440.4
60 72 -181620.5
60 73 18237.91
60 74 10421.67
60 75 -5862.187
61 46 -181620.5
61 47 161440.4
61 61 419981.1
61 62 -32422.96
61 63 18237.91
61 64 -56740.18
61 65 32422.96
61 66 -18237.91
61 76 -181620.5
61 77 -161440.4
62 38 -143502.6
62 39 -161440.4
62 46 161440.4
62 47 -143502.6
62 50 -1172083.0
62 61 -32422.96
62 62 2936704.0
62 63 -10421.67
62 64 32422.96
62 65 -18527.41
62 66 10421.67
62 68 -143502.6
62 69 161440.4
62 76 -161440.4
62 77 -143502.6
62 80 -1172083.0
63 38 -161440.4
63 39 -181620.5
63 61 18237.91
63 62 -10421.67
63 63 369103.1
63 64 -18237.91
63 65 10421.67
63 66 -5862.187
63 68 161440.4
63 69 -181620.5
64 52 -56740.18
64 53 32422.96
64 54 18237.91
64 61 -56740.18
64 62 32422.96
64 63 -18237.91
64 64 596076.3
64 65 -64845.92
64 67 -241298.0
64 69 77560.06
64 79 -241298.0
64 81 -77560.06
65 52 32422.96
65 53 -18527.41
65 54 -10421.67
65 61 32422.96
65 62 -18527.41
65 63 10421.67
65 64 -64845.92
65 65 37054.81
66 52 18237.91
66 53 -10421.67
66 54 -5862.187
66 61 -18237.91
66 62 10421.67
66 63 -5862.187
66 66 61584.41
66 67 77560.06
66 69 -24930.02
66 79 -77560.06
66 81 -24930.02
67 55 -181620.5
67 56 161440.4
67 64 -241298.0
67 66 77560.06
67 67 992141.2
67 68 -231242.4
67 69 -86142.29
67 70 -435000.0
67 82 -21563.52
67 83 176152.7
67 84 -21563.52
67 85 -110605.2
67 86 -123130.5
67 87 15072.87
67 91 -2054.077
67 92 16779.78
67 93 15072.87
68 53 -1172083.0
68 55 161440.4
68 56 -143502.6
68 62 -143502.6
68 63 161440.4
68 67 -231242.4
68 68 3172231.0
68 69 -231242.4
68 82 176152.7
68 83 -1438994.0
68 84 176152.7
68 85 -123130.5
68 86 -137074.3
68 87 16779.78
68 91 16779.78
68 92 -137074.3
68 93 -123130.5
69 62 161440.4
69 63 -181620.5
69 64 77560.06
69 66 -24930.02
69 67 -86142.29
69 68 -231242.4
69 69 722069.5
69 81 -381296.3
69 82 -21563.52
69 83 176152.7
69 84 -21563.52
69 85 15072.87
69 86 16779.78
69 87 -2054.077
69 91 15072.87
69 92 -123130.5
69 93 -110605.2
70 52 -181620.5
70 53 -161440.4
70 67 -435000.0
70 70 1126950.0
70 71 231242.4
70 72 -48666.31
70 73 -241298.0
70 75 -77560.06
70 79 -134808.6
70 81 134808.6
70 82 -110605.2
70 83 123130.5
70 84 -15072.87
70 85 -21563.52
70 86 -176152.7
70 87 21563.52
70 88 -2054.077
70 89 -16779.78
70 90 -15072.87
71 52 -161440.4
71 53 -143502.6
71 56 -1172083.0
71 59 -143502.6
71 60 161440.4
71 70 231242.4
71 71 3172231.0
71 72 -231242.4
71 82 123130.5
71 83 -137074.3
71 84 16779.78
71 85 -176152.7
71 86 -1438994.0
71 87 176152.7
71 88 -16779.78
71 89 -137074.3
71 90 -123130.5
72 59 161440.4
72 60 -181620.5
72 70 -48666.31
72 71 -231242.4
72 72 856878.1
72 73 -77560.06
72 75 -24930.02
72 78 -381296.3
72 79 134808.6
72 81 -134808.6
72 82 -15072.87
72 83 16779.78
72 84 -2054.077
72 85 21563.52
72 86 176152.7
72 87 -21563.52
72 88 -15072.87
72 89 -123130.5
72 90 -110605.2
73 55 -56740.18
73 56 -32422.96
73 57 -18237.91
73 58 -56740.18
73 59 -32422.96
73 60 18237.91
73 70 -241298.0
73 72 -77560.06
73 73 596076.3
73 74 64845.92
73 76 -241298.0
73 78 77560.06
74 55 -32422.96
74 56 -18527.41
74 57 -10421.67
74 58 -32422.96
74 59 -18527.41
74 60 10421.67
74 73 64845.92
74 74 37054.81
75 55 -18237.91
75 56 -10421.67
75 57 -5862.187
75 58 18237.91
75 59 10421.67
75 60 -5862.187
75 70 -77560.06
75 72 -24930.02
75 75 61584.41
75 76 77560.06
75 78 -24930.02
76 61 -181620.5
76 62 -161440.4
76 73 -241298.0
76 75 77560.06
76 76 992141.2
76 77 231242.4
76 78 -86142.29
76 79 -435000.0
76 85 -2054.077
76 86 -16779.78
76 87 15072.87
76 88 -21563.52
76 89 -176152.7
76 90 -21563.52
76 91 -110605.2
76 92 123130.5
76 93 15072.87
77 56 -143502.6
77 57 -161440.4
77 59 -1172083.0
77 61 -161440.4
77 62 -143502.6
77 76 231242.4
77 77 3172231.0
77 78 231242.4
77 85 -16779.78
77 86 -137074.3
77 87 123130.5
77 88 -176152.7
77 89 -1438994.0
77 90 -176152.7
77 91 123130.5
77 92 -137074.3
77 93 -16779.78
78 56 -161440.4
78 57 -181620.5
78 72 -381296.3
78 73 77560.06
78 75 -24930.02
78 76 -86142.29
78 77 231242.4
78 78 722069.5
78 85 15072.87
78 86 123130.5
78 87 -110605.2
78 88 -21563.52
78 89 -176152.7
78 90 -21563.52
78 91 15072.87
78 92 -16779.78
78 93 -2054.077
79 58 -181620.5
79 59 161440.4
79 64 -241298.0
79 66 -77560.06
79 70 -134808.6
79 72 134808.6
79 76 -435000.0
79 79 1126950.0
79 80 -231242.4
79 81 -48666.31
79 82 -2054.077
79 83 16779.78
79 84 -15072.87
79 88 -110605.2
79 89 -123130.5
79 90 -15072.87
79 91 -21563.52
79 92 176152.7
79 93 21563.52
80 53 -143502.6
80 54 -161440.4
80 58 161440.4
80 59 -143502.6
80 62 -1172083.0
80 79 -231242.4
80 80 3172231.0
80 81 231242.4
80 82 16779.78
80 83 -137074.3
80 84 123130.5
80 88 -123130.5
80 89 -137074.3
80 90 -16779.78
80 91 176152.7
80 92 -1438994.0
80 93 -176152.7
81 53 -161440.4
81 54 -181620.5
81 64 -77560.06
81 66 -24930.02
81 69 -381296.3
81 70 134808.6
81 72 -134808.6
81 79 -48666.31
81 80 231242.4
81 81 856878.1
81 82 -15072.87
81 83 123130.5
81 84 -110605.2
81 88 -15072.87
81 89 -16779.78
81 90 -2054.077
81 91 21563.52
81 92 -176152.7
81 93 -21563.52
82 67 -21563.52
82 68 176152.7
82 69 -21563.52
82 70 -110605.2
82 71 123130.5
82 72 -15072.87
82 79 -2054.077
82 80 16779.78
82 81 -15072.87
82 82 262827.7
82 83 -401631.4
82 84 49337.03
82 94 -20515.64
82 95 170482.1
82 96 -20515.64
82 97 -106863.8
82 98 -95097.51
82 99 11443.94
82 103 -1225.52
82 104 10183.9
82 105 11443.94
83 67 176152.7
83 68 -1438994.0
83 69 176152.7
83 70 123130.5
83 71 -137074.3
83 72 16779.78
83 79 16779.78
83 80 -137074.3
83 81 123130.5
83 82 -401631.4
83 83 3299078.0
83 84 -401631.4
83 94 170482.1
83 95 -1416682.0
83 96 170482.1
83 97 -95097.51
83 98 -84626.74
83 99 10183.9
83 103 10183.9
83 104 -84626.74
83 105 -95097.51
84 67 -21563.52
84 68 176152.7
84 69 -21563.52
84 70 -15072.87
84 71 16779.78
84 72 -2054.077
84 79 -15072.87
84 80 123130.5
84 81 -110605.2
84 82 49337.03
84 83 -401631.4
84 84 262827.7
84 94 -20515.64
84 95 170482.1
84 96 -20515.64
84 97 11443.94
84 98 10183.9
84 99 -1225.52
84 103 11443.94
84 104 -95097.51
84 105 -106863.8
85 67 -110605.2
85 68 -123130.5
85 69 15072.87
85 70 -21563.52
85 71 -176152.7
85 72 21563.52
85 76 -2054.077
85 77 -16779.78
85 78 15072.87
85 85 262827.7
85 86 401631.4
85 87 -49337.03
85 94 -106863.8
85 95 95097.51
85 96 -11443.94
85 97 -20515.64
85 98 -170482.1
85 99 20515.64
85 100 -1225.52
85 101 -10183.9
85 102 -11443.94
86 67 -123130.5
86 68 -137074.3
86 69 16779.78
86 70 -176152.7
86 71 -1438994.0
86 72 176152.7
86 76 -16779.78
86 77 -137074.3
86 78 123130.5
86 85 401631.4
86 86 3299078.0
86 87 -401631.4
86 94 95097.51
86 95 -84626.74
86 96 10183.9
86 97 -170482.1
86 98 -1416682.0
86 99 170482.1
86 100 -10183.9
86 101 -84626.74
86 102 -95097.51
87 67 15072.87
87 68 16779.78
87 69 -2054.077
87 70 21563.52
87 71 176152.7
87 72 -21563.52
87 76 15072.87
87 77 123130.5
87 78 -110605.2
87 85 -49337.03
87 86 -401631.4
87 87 262827.7
87 94 -11443.94
87 95 10183.9
87 96 -1225.52
87 97 20515.64
87 98 170482.1
87 99 -20515.64
87 100 -11443.94
87 101 -95097.51
87 102 -106863.8
88 70 -2054.077
88 71 -16779.78
88 72 -15072.87
88 76 -21563.52
88 77 -176152.7
88 78 -21563.52
88 79 -110605.2
88 80 -123130.5
88 81 -15072.87
88 88 262827.7
88 89 401631.4
88 90 49337.03
88 97 -1225.52
88 98 -10183.9
88 99 11443.94
88 100 -20515.64
88 101 -170482.1
88 102 -20515.64
88 103 -106863.8
88 104 95097.51
88 105 11443.94
89 70 -16779.78
89 71 -137074.3
89 72 -123130.5
89 76 -176152.7
89 77 -1438994.0
89 78 -176152.7
89 79 -123130.5
89 80 -137074.3
89 81 -16779.78
89 88 401631.4
89 89 3299078.0
89 90 401631.4
89 97 -10183.9
89 98 -84626.74
89 99 95097.51
89 100 -170482.1
89 101 -1416682.0
89 102 -170482.1
89 103 95097.51
89 104 -84626.74
89 105 -10183.9
90 70 -15072.87
90 71 -123130.5
90 72 -110605.2
90 76 -21563.52
90 77 -176152.7
90 78 -21563.52
90 79 -15072.87
90 80 -16779.78
90 81 -2054.077
90 88 49337.03
90 89 401631.4
90 90 262827.7
90 97 11443.94
90 98 95097.51
90 99 -106863.8
90 100 -20515.64
90 101 -170482.1
90 102 -20515.64
90 103 11443.94
90 104 -10183.9
90 105 -1225.52
91 67 -2054.077
91 68 16779.78
91 69 15072.87
91 76 -110605.2
91 77 123130.5
91 78 15072.87
91 79 -21563.52
91 80 176152.7
91 81 21563.52
91 91 262827.7
91 92 -401631.4
91 93 -49337.03
91 94 -1225.52
91 95 10183.9
91 96 -11443.94
91 100 -106863.8
91 101 -95097.51
91 102 -11443.94
91 103 -20515.64
91 104 170482.1
91 105 20515.64
92 67 16779.78
92 68 -137074.3
92 69 -123130.5
92 76 123130.5
92 77 -137074.3
92 78 -16779.78
92 79 176152.7
92 80 -1438994.0
92 81 -176152.7
92 91 -401631.4
92 92 3299078.0
92 93 401631.4
92 94 10183.9
92 95 -84626.74
92 96 95097.51
92 100 -95097.51
92 101 -84626.74
92 102 -10183.9
92 103 170482.1
92 104 -1416682.0
92 105 -170482.1
93 67 15072.87
93 68 -123130.5
93 69 -110605.2
93 76 15072.87
93 77 -16779.78
93 78 -2054.077
93 79 21563.52
93 80 -176152.7
93 81 -21563.52
93 91 -49337.03
93 92 401631.4
93 93 262827.7
93 94 -11443.94
93 95 95097.51
93 96 -106863.8
93 100 -11443.94
93 101 -10183.9
93 102 -1225.52
93 103 20515.64
93 104 -170482.1
93 105 -20515.64
94 82 -20515.64
94 83 170482.1
94 84 -20515.64
94 85 -106863.8
94 86 95097.51
94 87 -11443.94
94 91 -1225.52
94 92 10183.9
94 93 -11443.94
94 94 264605.1
94 95 -380157.1
94 96 45371.47
94 106 -22147.79
94 107 178412.8
94 108 -22147.79
94 109 -112951.0
94 110 -81279.88
94 111 10089.92
94 115 -901.3325
94 116 7260.734
94 117 10089.92
95 82 170482.1
95 83 -1416682.0
95 84 170482.1
95 85 95097.51
95 86 -84626.74
95 87 10183.9
95 91 10183.9
95 92 -84626.74
95 93 95097.51
95 94 -380157.1
95 95 3140128.0
95 96 -380157.1
95 106 178412.8
95 107 -1437214.0
95 108 178412.8
95 109 -81279.88
95 110 -58489.24
95 111 7260.734
95 115 7260.734
95 116 -58489.24
95 117 -81279.88
96 82 -20515.64
96 83 170482.1
96 84 -20515.64
96 85 -11443.94
96 86 10183.9
96 87 -1225.52
96 91 -11443.94
96 92 95097.51
96 93 -106863.8
96 94 45371.47
96 95 -380157.1
96 96 264605.1
96 106 -22147.79
96 107 178412.8
96 108 -22147.79
96 109 10089.92
96 110 7260.734
96 111 -901.3325
96 115 10089.92
96 116 -81279.88
96 117 -112951.0
97 82 -106863.8
97 83 -95097.51
97 84 11443.94
97 85 -20515.64
97 86 -170482.1
97 87 20515.64
97 88 -1225.52
97 89 -10183.9
97 90 11443.94
97 97 264605.1
97 98 380157.1
97 99 -45371.47
97 106 -112951.0
97 107 81279.88
97 108 -10089.92
97 109 -22147.79
97 110 -178412.8
97 111 22147.79
97 112 -901.3325
97 113 -7260.734
97 114 -10089.92
98 82 -95097.51
98 83 -84626.74
98 84 10183.9
98 85 -170482.1
98 86 -1416682.0
98 87 170482.1
98 88 -10183.9
98 89 -84626.74
98 90 95097.51
98 97 380157.1
98 98 3140128.0
98 99 -380157.1
98 106 81279.88
98 107 -58489.24
98 108 7260.734
98 109 -178412.8
98 110 -1437214.0
98 111 178412.8
98 112 -7260.734
98 113 -58489.24
98 114 -81279.88
99 82 11443.94
99 83 10183.9
99 84 -1225.52
99 85 20515.64
99 86 170482.1
99 87 -20515.64
99 88 11443.94
99 89 95097.51
99 90 -106863.8
99 97 -45371.47
99 98 -380157.1
99 99 264605.1
99 106 -10089.92
99 107 7260.734
99 108 -901.3325
99 109 22147.79
99 110 178412.8
99 111 -22147.79
99 112 -10089.92
99 113 -81279.88
99 114 -112951.0
100 85 -1225.52
100 86 -10183.9
100 87 -11443.94
100 88 -20515.64
100 89 -170482.1
100 90 -20515.64
100 91 -106863.8
100 92 -95097.51
100 93 -11443.94
100 100 264605.1
100 101 380157.1
100 102 45371.47
100 109 -901.3325
100 110 -7260.734
100 111 10089.92
100 112 -22147.79
100 113 -178412.8
100 114 -22147.79
100 115 -112951.0
100 116 81279.88
100 117 10089.92
101 85 -10183.9
101 86 -84626.74
101 87 -95097.51
101 88 -170482.1
101 89 -1416682.0
101 90 -170482.1
101 91 -95097.51
101 92 -84626.74
101 93 -10183.9
101 100 380157.1
101 101 3140128.0
101 102 380157.1
101 109 -7260.734
101 110 -58489.24
101 111 81279.88
101 112 -178412.8
101 113 -1437214.0
101 114 -178412.8
101 115 81279.88
101 116 -58489.24
101 117 -7260.734
102 85 -11443.94
102 86 -95097.51
102 87 -106863.8
102 88 -20515.64
102 89 -170482.1
102 90 -20515.64
102 91 -11443.94
102 92 -10183.9
102 93 -1225.52
102 100 45371.47
102 101 380157.1
102 102 264605.1
102 109 10089.92
102 110 81279.88
102 111 -112951.0
102 112 -22147.79
102 113 -178412.8
102 114 -22147.79
102 115 10089.92
102 116 -7260.734
102 117 -901.3325
103 82 -1225.52
103 83 10183.9
103 84 11443.94
103 88 -106863.8
103 89 95097.51
103 90 11443.94
103 91 -20515.64
103 92 170482.1
103 93 20515.64
103 103 264605.1
103 104 -380157.1
103 105 -45371.47
103 106 -901.3325
103 107 7260.734
103 108 -10089.92
103 112 -112951.0
103 113 -81279.88
103 114 -10089.92
103 115 -22147.79
103 116 178412.8
103 117 22147.79
104 82 10183.9
104 83 -84626.74
104 84 -95097.51
104 88 95097.51
104 89 -84626.74
104 90 -10183.9
104 91 170482.1
104 92 -1416682.0
104 93 -170482.1
104 103 -380157.1
104 104 3140128.0
104 105 380157.1
104 106 7260.734
104 107 -58489.24
104 108 81279.88
104 112 -81279.88
104 113 -58489.24
104 114 -7260.734
104 115 178412.8
104 116 -1437214.0
104 117 -178412.8
105 82 11443.94
105 83 -95097.51
105 84 -106863.8
105 88 11443.94
105 89 -10183.9
105 90 -1225.52
105 91 20515.64
105 92 -170482.1
105 93 -20515.64
105 103 -45371.47
105 104 380157.1
105 105 264605.1
105 106 -10089.92
105 107 81279.88
105 108 -112951.0
105 112 -10089.92
105 113 -7260.734
105 114 -901.3325
105 115 22147.79
105 116 -178412.8
105 117 -22147.79
106 94 -22147.79
106 95 178412.8
106 96 -22147.79
106 97 -112951.0
106 98 81279.88
106 99 -10089.92
106 103 -901.3325
106 104 7260.734
106 105 -10089.92
106 106 247903.7
106 107 -349815.3
106 108 43400.27
106 118 -17592.79
106 119 144881.8
106 120 -17592.79
106 121 -93581.72
106 122 -68024.09
106 123 8260.068
106 127 -729.0818
106 128 6004.203
106 129 8260.068
107 94 178412.8
107 95 -1437214.0
107 96 178412.8
107 97 81279.88
107 98 -58489.24
107 99 7260.734
107 103 7260.734
107 104 -58489.24
107 105 81279.88
107 106 -349815.3
107 107 2846229.0
107 108 -349815.3
107 118 144881.8
107 119 -1193144.0
107 120 144881.8
107 121 -68024.09
107 122 -49446.38
107 123 6004.203
107 127 6004.203
107 128 -49446.38
107 129 -68024.09
108 94 -22147.79
108 95 178412.8
108 96 -22147.79
108 97 -10089.92
108 98 7260.734
108 99 -901.3325
108 103 -10089.92
108 104 81279.88
108 105 -112951.0
108 106 43400.27
108 107 -349815.3
108 108 247903.7
108 118 -17592.79
108 119 144881.8
108 120 -17592.79
108 121 8260.068
108 122 6004.203
108 123 -729.0818
108 127 8260.068
108 128 -68024.09
108 129 -93581.72
109 94 -112951.0
109 95 -81279.88
109 96 10089.92
109 97 -22147.79
109 98 -178412.8
109 99 22147.79
109 100 -901.3325
109 101 -7260.734
109 102 10089.92
109 109 247903.7
109 110 349815.3
109 111 -43400.27
109 118 -93581.72
109 119 68024.09
109 120 -8260.068
109 121 -17592.79
109 122 -144881.8
109 123 17592.79
109 124 -729.0818
109 125 -6004.203
109 126 -8260.068
110 94 -81279.88
110 95 -58489.24
110 96 7260.734
110 97 -178412.8
110 98 -1437214.0
110 99 178412.8
110 100 -7260.734
110 101 -58489.24
110 102 81279.88
110 109 349815.3
110 110 2846229.0
110 111 -349815.3
110 118 68024.09
110 119 -49446.38
110 120 6004.203
110 121 -144881.8
110 122 -1193144.0
110 123 144881.8
110 124 -6004.203
110 125 -49446.38
110 126 -68024.09
111 94 10089.92
111 95 7260.734
111 96 -901.3325
111 97 22147.79
111 98 178412.8
111 99 -22147.79
111 100 10089.92
111 101 81279.88
111 102 -112951.0
111 109 -43400.27
111 110 -349815.3
111 111 247903.7
111 118 -8260.068
111 119 6004.203
111 120 -729.0818
111 121 17592.79
111 122 144881.8
111 123 -17592.79
111 124 -8260.068
111 125 -68024.09
111 126 -93581.72
112 97 -901.3325
112 98 -7260.734
112 99 -10089.92
112 100 -22147.79
112 101 -178412.8
112 102 -22147.79
112 103 -112951.0
112 104 -81279.88
112 105 -10089.92
112 112 247903.7
112 113 349815.3
112 114 43400.27
112 121 -729.0818
112 122 -6004.203
112 123 8260.068
112 124 -17592.79
112 125 -144881.8
112 126 -17592.79
112 127 -93581.72
112 128 68024.09
112 129 8260.068
113 97 -7260.734
113 98 -58489.24
113 99 -81279.88
113 100 -178412.8
113 101 -1437214.0
113 102 -178412.8
113 103 -81279.88
113 104 -58489.24
113 105 -7260.734
113 112 349815.3
113 113 2846229.0
113 114 349815.3
113 121 -6004.203
113 122 -49446.38
113 123 68024.09
113 124 -144881.8
113 125 -1193144.0
113 126 -144881.8
113 127 68024.09
113 128 -49446.38
113 129 -6004.203
114 97 -10089.92
114 98 -81279.88
114 99 -112951.0
114 100 -22147.79
114 101 -178412.8
114 102 -22147.79
114 103 -10089.92
114 104 -7260.734
114 105 -901.3325
114 112 43400.27
114 113 349815.3
114 114 247903.7
114 121 8260.068
114 122 68024.09
114 123 -93581.72
114 124 -17592.79
114 125 -144881.8
114 126 -17592.79
114 127 8260.068
114 128 -6004.203
114 129 -729.0818
115 94 -901.3325
115 95 7260.734
115 96 10089.92
115 100 -112951.0
115 101 81279.88
115 102 10089.92
115 103 -22147.79
115 104 178412.8
115 105 22147.79
115 115 247903.7
115 116 -349815.3
115 117 -43400.27
115 118 -729.0818
115 119 6004.203
115 120 -8260.068
115 124 -93581.72
115 125 -68024.09
115 126 -8260.068
115 127 -17592.79
115 128 144881.8
115 129 17592.79
116 94 7260.734
116 95 -58489.24
116 96 -81279.88
116 100 81279.88
116 101 -58489.24
116 102 -7260.734
116 103 178412.8
116 104 -1437214.0
116 105 -178412.8
116 115 -349815.3
116 116 2846229.0
116 117 349815.3
116 118 6004.203
116 119 -49446.38
116 120 68024.09
116 124 -68024.09
116 125 -49446.38
116 126 -6004.203
116 127 144881.8
116 128 -1193144.0
116 129 -144881.8
117 94 10089.92
117 95 -81279.88
117 96 -112951.0
117 100 10089.92
117 101 -7260.734
117 102 -901.3325
117 103 22147.79
117 104 -178412.8
117 105 -22147.79
117 115 -43400.27
117 116 349815.3
117 117 247903.7
117 118 -8260.068
117 119 68024.09
117 120 -93581.72
117 124 -8260.068
117 125 -6004.203
117 126 -729.0818
117 127 17592.79
117 128 -144881.8
117 129 -17592.79
118 106 -17592.79
118 107 144881.8
118 108 -17592.79
118 109 -93581.72
118 110 68024.09
118 111 -8260.068
118 115 -729.0818
118 116 6004.203
118 117 -8260.068
118 118 234465.7
118 119 -302695.6
118 120 35771.94
118 130 -17648.7
118 131 144029.6
118 132 -17648.7
118 133 -104300.6
118 134 -65245.28
118 135 7994.844
118 139 -612.8206
118 140 5001.18
118 141 7994.844
119 106 144881.8
119 107 -1193144.0
119 108 144881.8
119 109 68024.09
119 110 -49446.38
119 111 6004.203
119 115 6004.203
119 116 -49446.38
119 117 68024.09
119 118 -302695.6
119 119 2549079.0
119 120 -302695.6
119 130 144029.6
119 131 -1175414.0
119 132 144029.6
119 133 -65245.28
119 134 -40814.23
119 135 5001.18
119 139 5001.18
119 140 -40814.23
119 141 -65245.28
120 106 -17592.79
120 107 144881.8
120 108 -17592.79
120 109 -8260.068
120 110 6004.203
120 111 -729.0818
120 115 -8260.068
120 116 68024.09
120 117 -93581.72
120 118 35771.94
120 119 -302695.6
120 120 234465.7
120 130 -17648.7
120 131 144029.6
120 132 -17648.7
120 133 7994.844
120 134 5001.18
120 135 -612.8206
120 139 7994.844
120 140 -65245.28
120 141 -104300.6
121 106 -93581.72
121 107 -68024.09
121 108 8260.068
121 109 -17592.79
121 110 -144881.8
121 111 17592.79
121 112 -729.0818
121 113 -6004.203
121 114 8260.068
121 121 234465.7
121 122 302695.6
121 123 -35771.94
121 130 -104300.6
121 131 65245.28
121 132 -7994.844
121 133 -17648.7
121 134 -144029.6
121 135 17648.7
121 136 -612.8206
121 137 -5001.18
121 138 -7994.844
122 106 -68024.09
122 107 -49446.38
122 108 6004.203
122 109 -144881.8
122 110 -1193144.0
122 111 144881.8
122 112 -6004.203
122 113 -49446.38
122 114 68024.09
122 121 302695.6
122 122 2549079.0
122 123 -302695.6
122 130 65245.28
122 131 -40814.23
122 132 5001.18
122 133 -144029.6
122 134 -1175414.0
122 135 144029.6
122 136 -5001.18
122 137 -40814.23
122 138 -65245.28
123 106 8260.068
123 107 6004.203
123 108 -729.0818
123 109 17592.79
123 110 144881.8
123 111 -17592.79
123 112 8260.068
123 113 68024.09
123 114 -93581.72
123 121 -35771.94
123 122 -302695.6
123 123 234465.7
123 130 -7994.844
123 131 5001.18
123 132 -612.8206
123 133 17648.7
123 134 144029.6
123 135 -17648.7
123 136 -7994.844
123 137 -65245.28
123 138 -104300.6
124 109 -729.0818
124 110 -6004.203
124 111 -8260.068
124 112 -17592.79
124 113 -144881.8
124 114 -17592.79
124 115 -93581.72
124 116 -68024.09
124 117 -8260.068
124 124 234465.7
124 125 302695.6
124 126 35771.94
124 133 -612.8206
124 134 -5001.18
124 135 7994.844
124 136 -17648.7
124 137 -144029.6
124 138 -17648.7
124 139 -104300.6
124 140 65245.28
124 141 7994.844
125 109 -6004.203
125 110 -49446.38
125 111 -68024.09
125 112 -144881.8
125 113 -1193144.0
125 114 -144881.8
125 115 -68024.09
125 116 -49446.38
125 117 -6004.203
125 124 302695.6
125 125 2549079.0
125 126 302695.6
125 133 -5001.18
125 134 -40814.23
125 135 65245.28
125 136 -144029.6
125 137 -1175414.0
125 138 -144029.6
125 139 65245.28
125 140 -40814.23
125 141 -5001.18
126 109 -8260.068
126 110 -68024.09
126 111 -93581.72
126 112 -17592.79
126 113 -144881.8
126 114 -17592.79
126 115 -8260.068
126 116 -6004.203
126 117 -729.0818
126 124 35771.94
126 125 302695.6
126 126 234465.7
126 133 7994.844
126 134 65245.28
126 135 -104300.6
126 136 -17648.7
126 137 -144029.6
126 138 -17648.7
126 139 7994.844
126 140 -5001.18
126 141 -612.8206
127 106 -729.0818
127 107 6004.203
127 108 8260.068
127 112 -93581.72
127 113 68024.09
127 114 8260.068
127 115 -17592.79
127 116 144881.8
127 117 17592.79
127 127 234700.9
127 128 -304620.7
127 129 -39377.89
127 136 -104300.6
127 137 -65245.28
127 138 -7994.844
127 139 -17648.7
127 140 144029.6
127 141 17648.7
127 142 -848.0464
127 143 6926.275
127 144 -4388.894
128 106 6004.203
128 107 -49446.38
128 108 -68024.09
128 112 68024.09
128 113 -49446.38
128 114 -6004.203
128 115 144881.8
128 116 -1193144.0
128 117 -144881.8
128 127 -304620.7
128 128 2564834.0
128 129 332095.3
128 136 -65245.28
128 137 -40814.23
128 138 -5001.18
128 139 144029.6
128 140 -1175414.0
128 141 -144029.6
128 142 6926.275
128 143 -56569.18
128 144 35845.54
129 106 8260.068
129 107 -68024.09
129 108 -93581.72
129 112 8260.068
129 113 -6004.203
129 114 -729.0818
129 115 17592.79
129 116 -144881.8
129 117 -17592.79
129 127 -39377.89
129 128 332095.3
129 129 152878.9
129 136 -7994.844
129 137 -5001.18
129 138 -612.8206
129 139 17648.7
129 140 -144029.6
129 141 -17648.7
129 142 -4388.894
129 143 35845.54
129 144 -22713.84
130 118 -17648.7
130 119 144029.6
130 120 -17648.7
130 121 -104300.6
130 122 65245.28
130 123 -7994.844
130 130 352133.4
130 131 -256548.5
130 132 53153.98
130 133 -160188.2
130 136 -26219.95
130 138 -26219.95
130 142 -9329.711
130 143 76230.56
130 144 -9329.711
130 145 -33970.64
130 146 -32843.19
130 147 4019.614
130 151 -475.6253
130 152 3886.207
130 153 4019.614
131 118 144029.6
131 119 -1175414.0
131 120 144029.6
131 121 65245.28
131 122 -40814.23
131 123 5001.18
131 130 -256548.5
131 131 1902594.0
131 132 -196304.4
131 142 76230.56
131 143 -622859.5
131 144 76230.56
131 145 -32843.19
131 146 -31753.15
131 147 3886.207
131 151 3886.207
131 152 -31753.15
131 153 -32843.19
132 118 -17648.7
132 119 144029.6
132 120 -17648.7
132 121 -7994.844
132 122 5001.18
132 123 -612.8206
132 130 53153.98
132 131 -196304.4
132 132 248445.7
132 136 -26219.95
132 138 -26219.95
132 141 -160188.2
132 142 -9329.711
132 143 76230.56
132 144 -9329.711
132 145 4019.614
132 146 3886.207
132 147 -475.6253
132 151 4019.614
132 152 -32843.19
132 153 -33970.64
133 118 -104300.6
133 119 -65245.28
133 120 7994.844
133 121 -17648.7
133 122 -144029.6
133 123 17648.7
133 124 -612.8206
133 125 -5001.18
133 126 7994.844
133 130 -160188.2
133 133 352746.2
133 134 261549.7
133 135 -61148.82
133 139 -26219.95
133 141 26219.95
133 142 -33970.64
133 143 32843.19
133 144 -4019.614
133 145 -9329.711
133 146 -76230.56
133 147 9329.711
133 148 -475.6253
133 149 -3886.207
133 150 -4019.614
134 118 -65245.28
134 119 -40814.23
134 120 5001.18
134 121 -144029.6
134 122 -1175414.0
134 123 144029.6
134 124 -5001.18
134 125 -40814.23
134 126 65245.28
134 133 261549.7
134 134 1943408.0
134 135 -261549.7
134 142 32843.19
134 143 -31753.15
134 144 3886.207
134 145 -76230.56
134 146 -622859.5
134 147 76230.56
134 148 -3886.207
134 149 -31753.15
134 150 -32843.19
135 118 7994.844
135 119 5001.18
135 120 -612.8206
135 121 17648.7
135 122 144029.6
135 123 -17648.7
135 124 7994.844
135 125 65245.28
135 126 -104300.6
135 133 -61148.82
135 134 -261549.7
135 135 352746.2
135 138 -160188.2
135 139 26219.95
135 141 -26219.95
135 142 -4019.614
135 143 3886.207
135 144 -475.6253
135 145 9329.711
135 146 76230.56
135 147 -9329.711
135 148 -4019.614
135 149 -32843.19
135 150 -33970.64
136 121 -612.8206
136 122 -5001.18
136 123 -7994.844
136 124 -17648.7
136 125 -144029.6
136 126 -17648.7
136 127 -104300.6
136 128 -65245.28
136 129 -7994.844
136 130 -26219.95
136 132 -26219.95
136 136 352746.2
136 137 261549.7
136 138 61148.82
136 139 -160188.2
136 145 -475.6253
136 146 -3886.207
136 147 4019.614
136 148 -9329.711
136 149 -76230.56
136 150 -9329.711
136 151 -33970.64
136 152 32843.19
136 153 4019.614
137 121 -5001.18
137 122 -40814.23
137 123 -65245.28
137 124 -144029.6
137 125 -1175414.0
137 126 -144029.6
137 127 -65245.28
137 128 -40814.23
137 129 -5001.18
137 136 261549.7
137 137 1943408.0
137 138 261549.7
137 145 -3886.207
137 146 -31753.15
137 147 32843.19
137 148 -76230.56
137 149 -622859.5
137 150 -76230.56
137 151 32843.19
137 152 -31753.15
137 153 -3886.207
138 121 -7994.844
138 122 -65245.28
138 123 -104300.6
138 124 -17648.7
138 125 -144029.6
138 126 -17648.7
138 127 -7994.844
138 128 -5001.18
138 129 -612.8206
138 130 -26219.95
138 132 -26219.95
138 135 -160188.2
138 136 61148.82
138 137 261549.7
138 138 352746.2
138 145 4019.614
138 146 32843.19
138 147 -33970.64
138 148 -9329.711
138 149 -76230.56
138 150 -9329.711
138 151 4019.614
138 152 -3886.207
138 153 -475.6253
139 118 -612.8206
139 119 5001.18
139 120 7994.844
139 124 -104300.6
139 125 65245.28
139 126 7994.844
139 127 -17648.7
139 128 144029.6
139 129 17648.7
139 133 -26219.95
139 135 26219.95
139 136 -160188.2
139 139 352746.2
139 140 -261549.7
139 141 -61148.82
139 142 -475.6253
139 143 3886.207
139 144 -4019.614
139 148 -33970.64
139 149 -32843.19
139 150 -4019.614
139 151 -9329.711
139 152 76230.56
139 153 9329.711
140 118 5001.18
140 119 -40814.23
140 120 -65245.28
140 124 65245.28
140 125 -40814.23
140 126 -5001.18
140 127 144029.6
140 128 -1175414.0
140 129 -144029.6
140 139 -261549.7
140 140 1943408.0
140 141 261549.7
140 142 3886.207
140 143 -31753.15
140 144 32843.19
140 148 -32843.19
140 149 -31753.15
140 150 -3886.207
140 151 76230.56
140 152 -622859.5
140 153 -76230.56
141 118 7994.844
141 119 -65245.28
141 120 -104300.6
141 124 7994.844
141 125 -5001.18
141 126 -612.8206
141 127 17648.7
141 128 -144029.6
141 129 -17648.7
141 132 -160188.2
141 133 26219.95
141 135 -26219.95
141 139 -61148.82
141 140 261549.7
141 141 352746.2
141 142 -4019.614
141 143 32843.19
141 144 -33970.64
141 148 -4019.614
141 149 -3886.207
141 150 -475.6253
141 151 9329.711
141 152 -76230.56
141 153 -9329.711
142 127 -848.0464
142 128 6926.275
142 129 -4388.894
142 130 -9329.711
142 131 76230.56
142 132 -9329.711
142 133 -33970.64
142 134 32843.19
142 135 -4019.614
142 139 -475.6253
142 140 3886.207
142 141 -4019.614
142 142 242073.1
142 143 -177397.6
142 144 25079.74
142 145 -155446.2
143 127 6926.275
143 128 -56569.18
143 129 35845.54
143 130 76230.56
143 131 -622859.5
143 132 76230.56
143 133 32843.19
143 134 -31753.15
143 135 3886.207
143 139 3886.207
143 140 -31753.15
143 141 32843.19
143 142 -177397.6
143 143 1462557.0
143 144 -206316.8
144 127 -4388.894
144 128 35845.54
144 129 -22713.84
144 130 -9329.711
144 131 76230.56
144 132 -9329.711
144 133 -4019.614
144 134 3886.207
144 135 -475.6253
144 139 -4019.614
144 140 32843.19
144 141 -33970.64
144 142 25079.74
144 143 -206316.8
144 144 263938.9
144 153 -155446.2
145 130 -33970.64
145 131 -32843.19
145 132 4019.614
145 133 -9329.711
145 134 -76230.56
145 135 9329.711
145 136 -475.6253
145 137 -3886.207
145 138 4019.614
145 142 -155446.2
145 145 241225.1
145 146 170471.3
145 147 -20690.85
146 130 -32843.19
146 131 -31753.15
146 132 3886.207
146 133 -76230.56
146 134 -622859.5
146 135 76230.56
146 136 -3886.207
146 137 -31753.15
146 138 32843.19
146 145 170471.3
146 146 1405988.0
146 147 -170471.3
147 130 4019.614
147 131 3886.207
147 132 -475.6253
147 133 9329.711
147 134 76230.56
147 135 -9329.711
147 136 4019.614
147 137 32843.19
147 138 -33970.64
147 145 -20690.85
147 146 -170471.3
147 147 241225.1
147 150 -155446.2
148 133 -475.6253
148 134 -3886.207
148 135 -4019.614
148 136 -9329.711
148 137 -76230.56
148 138 -9329.711
148 139 -33970.64
148 140 -32843.19
148 141 -4019.614
148 148 241225.1
148 149 170471.3
148 150 20690.85
148 151 -155446.2
149 133 -3886.207
149 134 -31753.15
149 135 -32843.19
149 136 -76230.56
149 137 -622859.5
149 138 -76230.56
149 139 -32843.19
149 140 -31753.15
149 141 -3886.207
149 148 170471.3
149 149 1405988.0
149 150 170471.3
150 133 -4019.614
150 134 -32843.19
150 135 -33970.64
150 136 -9329.711
150 137 -76230.56
150 138 -9329.711
150 139 -4019.614
150 140 -3886.207
150 141 -475.6253
150 147 -155446.2
150 148 20690.85
150 149 170471.3
150 150 241225.1
151 130 -475.6253
151 131 3886.207
151 132 4019.614
151 136 -33970.64
151 137 32843.19
151 138 4019.614
151 139 -9329.711
151 140 76230.56
151 141 9329.711
151 148 -155446.2
151 151 241225.1
151 152 -170471.3
151 153 -20690.85
152 130 3886.207
152 131 -31753.15
152 132 -32843.19
152 136 32843.19
152 137 -31753.15
152 138 -3886.207
152 139 76230.56
152 140 -622859.5
152 141 -76230.56
152 151 -170471.3
152 152 1405988.0
152 153 170471.3
153 130 4019.614
153 131 -32843.19
153 132 -33970.64
153 136 4019.614
153 137 -3886.207
153 138 -475.6253
153 139 9329.711
153 140 -76230.56
153 141 -9329.711
153 144 -155446.2
153 151 -20690.85
153 152 170471.3
153 153 241225.1
