%%MatrixMarket matrix coordinate real general
% migrated from Universal blas/matrices/bcsstk22.hpp (universal#1210)
138 138 696
1 1 450819.1
1 3 -407765.9
1 5 -407765.9
2 2 1599569.0
2 4 -1599569.0
3 1 -407765.9
3 3 491765.6
3 5 245882.8
4 2 -1599569.0
4 4 2611653.0
4 5 42292.0
4 6 -983889.8
4 41 -28194.67
5 1 -407765.9
5 3 245882.8
5 4 42292.0
5 5 857687.1
5 7 151241.8
5 41 -42292.0
6 4 -983889.8
6 6 1444591.0
6 8 -460675.8
6 116 -25.36745
6 117 245.3184
7 5 151241.8
7 7 444112.0
7 9 70814.25
8 6 -460675.8
8 8 921351.6
8 10 -460675.8
9 7 70814.25
9 9 283257.0
9 11 70814.25
10 8 -460675.8
10 10 1352280.0
10 11 1.818989e-12
10 12 -891579.1
10 67 0.001311576
10 68 -25.36745
10 69 245.3184
11 9 70814.25
11 10 1.818989e-12
11 11 415732.3
11 13 137051.9
11 67 5.551115e-17
11 68 -1.818989e-12
11 69 1.455192e-11
12 10 -891579.1
12 12 2846285.0
12 13 42292.0
12 17 -28194.67
13 11 137051.9
13 12 42292.0
13 13 929821.5
13 14 591491.0
13 15 296139.8
13 17 -42292.0
14 13 591491.0
14 14 787604.5
14 15 591491.0
15 13 296139.8
15 14 591491.0
15 15 592279.6
16 16 761501.9
16 43 -654541.9
17 12 -28194.67
17 13 -42292.0
17 17 120748.4
17 18 378109.9
17 44 -92553.76
17 45 378109.9
18 17 378109.9
18 18 2389184.0
18 44 -378109.9
18 45 700201.1
19 19 743286.8
19 64 -640440.7
20 20 113231.5
20 21 -368117.4
20 24 -25064.96
20 25 39101.33
20 65 -88166.55
20 66 -368117.4
21 20 -368117.4
21 21 2363280.0
21 25 2.328306e-10
21 65 368117.4
21 66 710684.3
22 22 787604.5
22 23 591491.0
22 25 591491.0
23 22 591491.0
23 23 592279.6
23 25 296139.8
24 20 -25064.96
24 24 2843155.0
24 25 -39101.33
24 26 -891579.1
25 20 39101.33
25 21 2.328306e-10
25 22 591491.0
25 23 296139.8
25 24 -39101.33
25 25 927381.5
25 27 137051.9
26 24 -891579.1
26 26 1352278.0
26 28 -460675.8
26 88 3.493872
26 89 -23.56945
26 90 -233.5833
27 25 137051.9
27 27 415732.3
27 29 70814.25
28 26 -460675.8
28 28 921351.6
28 30 -460675.8
29 27 70814.25
29 29 283257.0
29 31 70814.25
30 28 -460675.8
30 30 1444589.0
30 32 -983889.8
30 137 -23.56928
30 138 -233.5833
31 29 70814.25
31 31 444112.0
31 33 151241.8
32 30 -983889.8
32 32 2611653.0
32 33 -42292.0
32 35 -1599569.0
32 38 -28194.67
33 31 151241.8
33 32 -42292.0
33 33 857687.1
33 34 -407765.9
33 36 245882.8
33 38 42292.0
34 33 -407765.9
34 34 450819.1
34 36 -407765.9
35 32 -1599569.0
35 35 1599569.0
36 33 245882.8
36 34 -407765.9
36 36 491765.6
37 37 637268.6
37 112 -545508.6
38 32 -28194.67
38 33 42292.0
38 38 103987.9
38 39 -318729.4
38 113 -75793.2
38 114 -318729.4
39 38 -318729.4
39 39 2006171.0
39 113 318729.4
39 114 674502.3
40 40 653285.5
40 91 -561525.5
41 4 -28194.67
41 5 -42292.0
41 41 109272.6
41 42 331227.7
41 92 -81077.94
41 93 331227.7
42 41 331227.7
42 42 2038549.0
42 92 -331227.7
42 93 667780.4
43 16 -654541.9
43 43 1216750.0
43 46 -562207.6
44 17 -92553.76
44 18 -378109.9
44 44 173109.5
44 45 -67347.91
44 47 -65337.6
44 48 310762.0
44 68 -15218.18
45 17 378109.9
45 18 700201.1
45 44 -67347.91
45 45 4592606.0
45 47 -310762.0
45 48 752700.3
45 69 -2.273737e-13
46 43 -562207.6
46 46 1124415.0
46 49 -562207.6
47 44 -65337.6
47 45 -310762.0
47 47 145893.4
47 50 -65337.6
47 51 310762.0
47 71 -15218.18
48 44 310762.0
48 45 752700.3
48 48 4406846.0
48 50 -310762.0
48 51 752700.3
48 72 -2.273737e-13
49 46 -562207.6
49 49 1124415.0
49 52 -562207.6
50 47 -65337.6
50 48 -310762.0
50 50 145893.4
50 51 3.72529e-09
50 53 -65337.6
50 54 310762.0
50 74 -15218.18
51 47 310762.0
51 48 752700.3
51 50 3.72529e-09
51 51 4406846.0
51 53 -310762.0
51 54 752700.3
51 75 -2.273737e-13
52 49 -562207.6
52 52 1124415.0
52 55 -562207.6
53 50 -65337.6
53 51 -310762.0
53 53 145893.4
53 54 -1.862645e-09
53 56 -65337.6
53 57 310762.0
53 77 -15218.18
54 50 310762.0
54 51 752700.3
54 53 -1.862645e-09
54 54 4406846.0
54 56 -310762.0
54 57 752700.3
54 78 -2.273737e-13
55 52 -562207.6
55 55 1124415.0
55 58 -562207.6
56 53 -65337.6
56 54 -310762.0
56 56 145893.4
56 57 -1.862645e-09
56 59 -65337.6
56 60 310762.0
56 80 -15218.18
57 53 310762.0
57 54 752700.3
57 56 -1.862645e-09
57 57 4406846.0
57 59 -310762.0
57 60 752700.3
57 81 -2.273737e-13
58 55 -562207.6
58 58 1124415.0
58 61 -562207.6
59 56 -65337.6
59 57 -310762.0
59 59 145893.4
59 60 2.04891e-08
59 62 -65337.6
59 63 310762.0
59 83 -15218.18
60 56 310762.0
60 57 752700.3
60 59 2.04891e-08
60 60 4406846.0
60 62 -310762.0
60 63 752700.3
60 84 -2.273737e-13
61 58 -562207.6
61 61 1124415.0
61 64 -562207.6
62 59 -65337.6
62 60 -310762.0
62 62 145893.4
62 63 -2.235174e-08
62 65 -65337.6
62 66 310762.0
62 86 -15218.18
63 59 310762.0
63 60 752700.3
63 62 -2.235174e-08
63 63 4406846.0
63 65 -310762.0
63 66 752700.3
63 87 -2.273737e-13
64 19 -640440.7
64 61 -562207.6
64 64 1202648.0
65 20 -88166.55
65 21 368117.4
65 62 -65337.6
65 63 -310762.0
65 65 168722.3
65 66 57355.41
65 89 -15218.18
66 20 -368117.4
66 21 710684.3
66 62 310762.0
66 63 752700.3
66 65 57355.41
66 66 4566703.0
66 90 -2.273737e-13
67 10 0.001311576
67 11 5.551115e-17
67 67 68593.96
67 68 -0.001311576
67 69 0.01268372
67 70 -68593.96
68 10 -25.36745
68 11 -1.818989e-12
68 44 -15218.18
68 67 -0.001311576
68 68 15350.15
68 69 261.6964
68 71 -106.5997
68 72 507.0148
69 10 245.3184
69 11 1.455192e-11
69 45 -2.273737e-13
69 67 0.01268372
69 68 261.6964
69 69 5587.695
69 71 -507.0148
69 72 1607.659
70 67 -68593.96
70 70 137187.9
70 73 -68593.96
71 47 -15218.18
71 68 -106.5997
71 69 -507.0148
71 71 15431.38
71 72 -1.818989e-12
71 74 -106.5997
71 75 507.0148
72 48 -2.273737e-13
72 68 507.0148
72 69 1607.659
72 71 -1.818989e-12
72 72 6430.638
72 74 -507.0148
72 75 1607.659
73 70 -68593.96
73 73 137187.9
73 76 -68593.96
74 50 -15218.18
74 71 -106.5997
74 72 -507.0148
74 74 15431.38
74 75 1.273293e-11
74 77 -106.5997
74 78 507.0148
75 51 -2.273737e-13
75 71 507.0148
75 72 1607.659
75 74 1.273293e-11
75 75 6430.638
75 77 -507.0148
75 78 1607.659
76 73 -68593.96
76 76 137187.9
76 79 -68593.96
77 53 -15218.18
77 74 -106.5997
77 75 -507.0148
77 77 15431.38
77 78 -1.818989e-12
77 80 -106.5997
77 81 507.0148
78 54 -2.273737e-13
78 74 507.0148
78 75 1607.659
78 77 -1.818989e-12
78 78 6430.638
78 80 -507.0148
78 81 1607.659
79 76 -68593.96
79 79 137187.9
79 82 -68593.96
80 56 -15218.18
80 77 -106.5997
80 78 -507.0148
80 80 15431.38
80 81 -1.818989e-12
80 83 -106.5997
80 84 507.0148
81 57 -2.273737e-13
81 77 507.0148
81 78 1607.659
81 80 -1.818989e-12
81 81 6430.638
81 83 -507.0148
81 84 1607.659
82 79 -68593.96
82 82 137187.9
82 85 -68593.96
83 59 -15218.18
83 80 -106.5997
83 81 -507.0148
83 83 15431.38
83 84 4.911271e-11
83 86 -106.5997
83 87 507.0148
84 60 -2.273737e-13
84 80 507.0148
84 81 1607.659
84 83 4.911271e-11
84 84 6430.638
84 86 -507.0148
84 87 1607.659
85 82 -68593.96
85 85 137187.9
85 88 -68593.96
86 62 -15218.18
86 83 -106.5997
86 84 -507.0148
86 86 15431.38
86 87 -5.09317e-11
86 89 -106.5997
86 90 507.0148
87 63 -2.273737e-13
87 83 507.0148
87 84 1607.659
87 86 -5.09317e-11
87 87 6430.638
87 89 -507.0148
87 90 1607.659
88 26 3.493872
88 85 -68593.96
88 88 137869.6
88 89 -3.493872
88 90 0.01178464
89 26 -23.56945
89 65 -15218.18
89 86 -106.5997
89 87 -507.0148
89 88 -3.493872
89 89 15348.35
89 90 -273.4315
90 26 -233.5833
90 66 -2.273737e-13
90 86 507.0148
90 87 1607.659
90 88 0.01178464
90 89 -273.4315
90 90 5530.246
91 40 -561525.5
91 91 1043838.0
91 94 -482312.7
92 41 -81077.94
92 42 -331227.7
92 92 156810.6
92 93 -62792.23
92 95 -56438.47
92 96 268435.5
92 116 -19294.18
93 41 331227.7
93 42 667780.4
93 92 -62792.23
93 93 3903994.0
93 95 -268435.5
93 96 688047.2
94 91 -482312.7
94 94 964625.5
94 97 -482312.7
95 92 -56438.47
95 93 -268435.5
95 95 132171.1
95 98 -56438.47
95 99 268435.5
95 119 -19294.18
96 92 268435.5
96 93 688047.2
96 96 3730891.0
96 98 -268435.5
96 99 688047.2
97 94 -482312.7
97 97 964625.5
97 100 -482312.7
98 95 -56438.47
98 96 -268435.5
98 98 132171.1
98 99 3.72529e-09
98 101 -56438.47
98 102 268435.5
98 122 -19294.18
99 95 268435.5
99 96 688047.2
99 98 3.72529e-09
99 99 3730891.0
99 101 -268435.5
99 102 688047.2
100 97 -482312.7
100 100 964625.5
100 103 -482312.7
101 98 -56438.47
101 99 -268435.5
101 101 132171.1
101 102 -1.862645e-09
101 104 -56438.47
101 105 268435.5
101 125 -19294.18
102 98 268435.5
102 99 688047.2
102 101 -1.862645e-09
102 102 3730891.0
102 104 -268435.5
102 105 688047.2
103 100 -482312.7
103 103 964625.5
103 106 -482312.7
104 101 -56438.47
104 102 -268435.5
104 104 132171.1
104 105 -1.862645e-09
104 107 -56438.47
104 108 268435.5
104 128 -19294.18
105 101 268435.5
105 102 688047.2
105 104 -1.862645e-09
105 105 3730891.0
105 107 -268435.5
105 108 688047.2
106 103 -482312.7
106 106 964625.5
106 109 -482312.7
107 104 -56438.47
107 105 -268435.5
107 107 132171.1
107 108 1.676381e-08
107 110 -56438.47
107 111 268435.5
107 131 -19294.18
108 104 268435.5
108 105 688047.2
108 107 1.676381e-08
108 108 3730891.0
108 110 -268435.5
108 111 688047.2
109 106 -482312.7
109 109 964625.5
109 112 -482312.7
110 107 -56438.47
110 108 -268435.5
110 110 132171.1
110 111 -1.862645e-08
110 113 -56438.47
110 114 268435.5
110 134 -19294.18
111 107 268435.5
111 108 688047.2
111 110 -1.862645e-08
111 111 3730891.0
111 113 -268435.5
111 114 688047.2
112 37 -545508.6
112 109 -482312.7
112 112 1027821.0
113 38 -75793.2
113 39 318729.4
113 110 -56438.47
113 111 -268435.5
113 113 151525.9
113 114 50293.87
113 137 -19294.18
114 38 -318729.4
114 39 674502.3
114 110 268435.5
114 111 688047.2
114 113 50293.87
114 114 3871616.0
115 115 68593.96
115 118 -68593.96
116 6 -25.36745
116 92 -19294.18
116 116 19426.15
116 117 261.6964
116 119 -106.5997
116 120 507.0148
117 6 245.3184
117 116 261.6964
117 117 5587.695
117 119 -507.0148
117 120 1607.659
118 115 -68593.96
118 118 137187.9
118 121 -68593.96
119 95 -19294.18
119 116 -106.5997
119 117 -507.0148
119 119 19507.38
119 120 -1.818989e-12
119 122 -106.5997
119 123 507.0148
120 116 507.0148
120 117 1607.659
120 119 -1.818989e-12
120 120 6430.638
120 122 -507.0148
120 123 1607.659
121 118 -68593.96
121 121 137187.9
121 124 -68593.96
122 98 -19294.18
122 119 -106.5997
122 120 -507.0148
122 122 19507.38
122 123 1.273293e-11
122 125 -106.5997
122 126 507.0148
123 119 507.0148
123 120 1607.659
123 122 1.273293e-11
123 123 6430.638
123 125 -507.0148
123 126 1607.659
124 121 -68593.96
124 124 137187.9
124 127 -68593.96
125 101 -19294.18
125 122 -106.5997
125 123 -507.0148
125 125 19507.38
125 126 -1.818989e-12
125 128 -106.5997
125 129 507.0148
126 122 507.0148
126 123 1607.659
126 125 -1.818989e-12
126 126 6430.638
126 128 -507.0148
126 129 1607.659
127 124 -68593.96
127 127 137187.9
127 130 -68593.96
128 104 -19294.18
128 125 -106.5997
128 126 -507.0148
128 128 19507.38
128 129 -1.818989e-12
128 131 -106.5997
128 132 507.0148
129 125 507.0148
129 126 1607.659
129 128 -1.818989e-12
129 129 6430.638
129 131 -507.0148
129 132 1607.659
130 127 -68593.96
130 130 137187.9
130 133 -68593.96
131 107 -19294.18
131 128 -106.5997
131 129 -507.0148
131 131 19507.38
131 132 4.911271e-11
131 134 -106.5997
131 135 507.0148
132 128 507.0148
132 129 1607.659
132 131 4.911271e-11
132 132 6430.638
132 134 -507.0148
132 135 1607.659
133 130 -68593.96
133 133 137187.9
133 136 -68593.96
134 110 -19294.18
134 131 -106.5997
134 132 -507.0148
134 134 19507.38
134 135 -5.09317e-11
134 137 -106.5997
134 138 507.0148
135 131 507.0148
135 132 1607.659
135 134 -5.09317e-11
135 135 6430.638
135 137 -507.0148
135 138 1607.659
136 133 -68593.96
136 136 137869.6
137 30 -23.56928
137 113 -19294.18
137 134 -106.5997
137 135 -507.0148
137 137 19424.35
137 138 -273.4315
138 30 -233.5833
138 134 507.0148
138 135 1607.659
138 137 -273.4315
138 138 5530.246
