%%MatrixMarket matrix coordinate real general
% migrated from Universal blas/matrices/bcsstk03.hpp (universal#1210)
112 112 640
1 1 296965300.0
1 4 4507339000.0
1 5 -296965300.0
1 8 4507339000.0
2 2 296965300.0
2 3 -4507339000.0
2 6 -296965300.0
2 7 -4507339000.0
3 2 -4507339000.0
3 3 167239600000.0
3 6 4507339000.0
3 7 -30414850000.0
4 1 4507339000.0
4 4 167239600000.0
4 5 -4507339000.0
4 8 -30414850000.0
5 1 -296965300.0
5 4 -4507339000.0
5 5 393238000.0
5 8 -4138134000.0
5 9 -96272660.0
5 12 369205600.0
6 2 -296965300.0
6 3 4507339000.0
6 6 393238000.0
6 7 4138134000.0
6 10 -96272660.0
6 11 -369205600.0
7 2 -4507339000.0
7 3 -30414850000.0
7 6 4138134000.0
7 7 171258000000.0
7 10 369205600.0
7 11 -1186547000.0
8 1 4507339000.0
8 4 -30414850000.0
8 5 -4138134000.0
8 8 171258000000.0
8 9 -369205600.0
8 12 -1186547000.0
9 5 -96272660.0
9 8 -369205600.0
9 9 196873900.0
9 12 42562560.0
9 13 -100431300.0
9 16 411768200.0
10 6 -96272660.0
10 7 369205600.0
10 10 196873900.0
10 11 -42562560.0
10 14 -100431300.0
10 15 -411768200.0
11 6 -369205600.0
11 7 -1186547000.0
11 10 -42562560.0
11 11 8484385000.0
11 14 411768200.0
11 15 -1089531000.0
12 5 369205600.0
12 8 -1186547000.0
12 9 42562560.0
12 12 8484385000.0
12 13 -411768200.0
12 16 -1089531000.0
13 9 -100431300.0
13 12 -411768200.0
13 13 201032500.0
13 17 -100431300.0
13 20 411768200.0
14 10 -100431300.0
14 11 411768200.0
14 14 201032500.0
14 18 -100431300.0
14 19 -411768200.0
15 10 -411768200.0
15 11 -1089531000.0
15 15 8932060000.0
15 18 411768200.0
15 19 -1089531000.0
16 9 411768200.0
16 12 -1089531000.0
16 16 8932060000.0
16 17 -411768200.0
16 20 -1089531000.0
17 13 -100431300.0
17 16 -411768200.0
17 17 201032500.0
17 21 -100431300.0
17 24 411768200.0
18 14 -100431300.0
18 15 411768200.0
18 18 201032500.0
18 22 -100431300.0
18 23 -411768200.0
19 14 -411768200.0
19 15 -1089531000.0
19 19 8932060000.0
19 22 411768200.0
19 23 -1089531000.0
20 13 411768200.0
20 16 -1089531000.0
20 20 8932060000.0
20 21 -411768200.0
20 24 -1089531000.0
21 17 -100431300.0
21 20 -411768200.0
21 21 201032500.0
21 25 -100431300.0
21 28 411768200.0
22 18 -100431300.0
22 19 411768200.0
22 22 201032500.0
22 26 -100431300.0
22 27 -411768200.0
23 18 -411768200.0
23 19 -1089531000.0
23 23 8932060000.0
23 26 411768200.0
23 27 -1089531000.0
24 17 411768200.0
24 20 -1089531000.0
24 24 8932060000.0
24 25 -411768200.0
24 28 -1089531000.0
25 21 -100431300.0
25 24 -411768200.0
25 25 201032500.0
25 28 4.529953e-06
25 29 -100431300.0
25 32 411768200.0
26 22 -100431300.0
26 23 411768200.0
26 26 201032500.0
26 27 -4.529953e-06
26 30 -100431300.0
26 31 -411768200.0
27 22 -411768200.0
27 23 -1089531000.0
27 26 -4.529953e-06
27 27 8932060000.0
27 30 411768200.0
27 31 -1089531000.0
28 21 411768200.0
28 24 -1089531000.0
28 25 4.529953e-06
28 28 8932060000.0
28 29 -411768200.0
28 32 -1089531000.0
29 25 -100431300.0
29 28 -411768200.0
29 29 118560100.0
29 32 -220955100.0
29 33 -17958880.0
29 36 190813100.0
30 26 -100431300.0
30 27 411768200.0
30 30 118560100.0
30 31 220955100.0
30 34 -17958880.0
30 35 -190813100.0
31 26 -411768200.0
31 27 -1089531000.0
31 30 220955100.0
31 31 7565316000.0
31 34 190813100.0
31 35 955492900.0
32 25 411768200.0
32 28 -1089531000.0
32 29 -220955100.0
32 32 7565316000.0
32 33 -190813100.0
32 36 955492900.0
33 29 -17958880.0
33 32 -190813100.0
33 33 207460000.0
33 36 229121300.0
33 37 -189501100.0
33 40 419934400.0
34 30 -17958880.0
34 31 190813100.0
34 34 207460000.0
34 35 -229121300.0
34 38 -189501100.0
34 39 -419934400.0
35 30 -190813100.0
35 31 955492900.0
35 34 -229121300.0
35 35 8533651000.0
35 38 419934400.0
35 39 -3573216000.0
36 29 190813100.0
36 32 955492900.0
36 33 229121300.0
36 36 8533651000.0
36 37 -419934400.0
36 40 -3573216000.0
37 33 -189501100.0
37 36 -419934400.0
37 37 189831400.0
37 40 -405856100.0
37 41 -330283.4
37 44 14078330.0
38 34 -189501100.0
38 35 419934400.0
38 38 189831400.0
38 39 405856100.0
38 42 -330283.4
38 43 -14078330.0
39 34 -419934400.0
39 35 -3573216000.0
39 38 405856100.0
39 39 6241431000.0
39 42 14078330.0
39 43 393111700.0
40 33 419934400.0
40 36 -3573216000.0
40 37 -405856100.0
40 40 6241431000.0
40 41 -14078330.0
40 44 393111700.0
41 37 -330283.4
41 40 -14078330.0
41 41 42437450.0
41 44 257197100.0
41 45 -42107170.0
41 48 271275400.0
42 38 -330283.4
42 39 14078330.0
42 42 42437450.0
42 43 -257197100.0
42 46 -42107170.0
42 47 -271275400.0
43 38 -14078330.0
43 39 393111700.0
43 42 -257197100.0
43 43 4057459000.0
43 46 271275400.0
43 47 244991100.0
44 37 14078330.0
44 40 393111700.0
44 41 257197100.0
44 44 4057459000.0
44 45 -271275400.0
44 48 244991100.0
45 41 -42107170.0
45 44 -271275400.0
45 45 43166560.0
45 48 -250959200.0
45 49 -550091.8
45 52 20316270.0
46 42 -42107170.0
46 43 271275400.0
46 46 43166560.0
46 47 250959200.0
46 50 -550091.8
46 51 -20316270.0
47 42 -271275400.0
47 43 244991100.0
47 46 250959200.0
47 47 4262854000.0
47 50 20316270.0
47 51 488199600.0
48 41 271275400.0
48 44 244991100.0
48 45 -250959200.0
48 48 4262854000.0
48 49 -20316270.0
48 52 488199600.0
49 45 -550091.8
49 48 -20316270.0
49 49 583761.4
49 52 -17216560.0
49 53 -33669.61
49 56 3099709.0
50 46 -550091.8
50 47 20316270.0
50 50 583761.4
50 51 17216560.0
50 54 -33669.61
50 55 -3099709.0
51 46 -20316270.0
51 47 488199600.0
51 50 17216560.0
51 51 1393659000.0
51 54 3099709.0
51 55 189536400.0
52 45 20316270.0
52 48 488199600.0
52 49 -17216560.0
52 52 1393659000.0
52 53 -3099709.0
52 56 189536400.0
53 49 -33669.61
53 52 -3099709.0
53 53 38798240.0
53 56 255072300.0
53 57 -38764570.0
53 60 258172000.0
54 50 -33669.61
54 51 3099709.0
54 54 38798240.0
54 55 -255072300.0
54 58 -38764570.0
54 59 -258172000.0
55 50 -3099709.0
55 51 189536400.0
55 54 -255072300.0
55 55 3510285000.0
55 58 258172000.0
55 59 309763500.0
56 49 3099709.0
56 52 189536400.0
56 53 255072300.0
56 56 3510285000.0
56 57 -258172000.0
56 60 309763500.0
57 53 -38764570.0
57 56 -258172000.0
57 57 40183440.0
57 60 -230234700.0
57 61 -909567.6
57 64 27937370.0
58 54 -38764570.0
58 55 258172000.0
58 58 40183440.0
58 59 230234700.0
58 62 -909567.6
58 63 -27937370.0
59 54 -258172000.0
59 55 309763500.0
59 58 230234700.0
59 59 4292844000.0
59 62 27937370.0
59 63 552436100.0
60 53 258172000.0
60 56 309763500.0
60 57 -230234700.0
60 60 4292844000.0
60 61 -27937370.0
60 64 552436100.0
61 57 -909567.6
61 60 -27937370.0
61 61 3409726.0
61 64 24565960.0
61 65 -2500159.0
61 68 52503330.0
62 58 -909567.6
62 59 27937370.0
62 62 3409726.0
62 63 -24565960.0
62 66 -2500159.0
62 67 -52503330.0
63 58 -27937370.0
63 59 552436100.0
63 62 -24565960.0
63 63 2686441000.0
63 66 52503330.0
63 67 682455600.0
64 57 27937370.0
64 60 552436100.0
64 61 24565960.0
64 64 2686441000.0
64 65 -52503330.0
64 68 682455600.0
65 61 -2500159.0
65 64 -52503330.0
65 65 8801000.0
65 68 42009300.0
65 69 -6300842.0
65 72 94512630.0
66 62 -2500159.0
66 63 52503330.0
66 66 8801000.0
66 67 -42009300.0
66 70 -6300842.0
66 71 -94512630.0
67 62 -52503330.0
67 63 682455600.0
67 66 -42009300.0
67 67 3547184000.0
67 70 94512630.0
67 71 810879400.0
68 61 52503330.0
68 64 682455600.0
68 65 42009300.0
68 68 3547184000.0
68 69 -94512630.0
68 72 810879400.0
69 65 -6300842.0
69 68 -94512630.0
69 69 12601680.0
69 73 -6300842.0
69 76 94512630.0
70 66 -6300842.0
70 67 94512630.0
70 70 12601680.0
70 74 -6300842.0
70 75 -94512630.0
71 66 -94512630.0
71 67 810879400.0
71 71 4048999000.0
71 74 94512630.0
71 75 810879400.0
72 65 94512630.0
72 68 810879400.0
72 72 4048999000.0
72 73 -94512630.0
72 76 810879400.0
73 69 -6300842.0
73 72 -94512630.0
73 73 28373430.0
73 76 170358400.0
73 77 -22072590.0
73 80 264871000.0
74 70 -6300842.0
74 71 94512630.0
74 74 28373430.0
74 75 -170358400.0
74 78 -22072590.0
74 79 -264871000.0
75 70 -94512630.0
75 71 810879400.0
75 74 -170358400.0
75 75 6930452000.0
75 78 264871000.0
75 79 1450953000.0
76 69 94512630.0
76 72 810879400.0
76 73 170358400.0
76 76 6930452000.0
76 77 -264871000.0
76 80 1450953000.0
77 73 -22072590.0
77 76 -264871000.0
77 77 23543790.0
77 80 -235520600.0
77 81 -1471202.0
77 84 29350480.0
78 74 -22072590.0
78 75 264871000.0
78 78 23543790.0
78 79 235520600.0
78 82 -1471202.0
78 83 -29350480.0
79 74 -264871000.0
79 75 1450953000.0
79 78 235520600.0
79 79 5710149000.0
79 82 29350480.0
79 83 366887900.0
80 73 264871000.0
80 76 1450953000.0
80 77 -235520600.0
80 80 5710149000.0
80 81 -29350480.0
80 84 366887900.0
81 77 -1471202.0
81 80 -29350480.0
81 81 9441905.0
81 84 -27046370.0
81 85 -30703.01
81 88 2304107.0
82 78 -1471202.0
82 79 29350480.0
82 82 29001900.0
82 83 27046370.0
82 86 -30703.01
82 87 -2304107.0
83 78 -29350480.0
83 79 366887900.0
83 82 27046370.0
83 83 1035235000.0
83 86 2304107.0
83 87 114784600.0
84 77 29350480.0
84 80 366887900.0
84 81 -27046370.0
84 84 1035235000.0
84 85 -2304107.0
84 88 114784600.0
85 81 -30703.01
85 84 -2304107.0
85 85 112445.9
85 88 2110420.0
85 89 -81742.93
85 92 4414527.0
86 82 -30703.01
86 83 2304107.0
86 86 112445.9
86 87 -2110420.0
86 90 -81742.93
86 91 -4414527.0
87 82 -2304107.0
87 83 114784600.0
87 86 -2110420.0
87 87 550218500.0
87 90 4414527.0
87 91 157633500.0
88 81 2304107.0
88 84 114784600.0
88 85 2110420.0
88 88 550218500.0
88 89 -4414527.0
88 92 157633500.0
89 85 -81742.93
89 88 -4414527.0
89 89 7356559.0
89 92 74699100.0
89 93 -7274816.0
89 96 79113620.0
90 86 -81742.93
90 87 4414527.0
90 90 7356559.0
90 91 -74699100.0
90 94 -7274816.0
90 95 -79113620.0
91 86 -4414527.0
91 87 157633500.0
91 90 -74699100.0
91 91 1603747000.0
91 94 79113620.0
91 95 436153700.0
92 85 4414527.0
92 88 157633500.0
92 89 74699100.0
92 92 1603747000.0
92 93 -79113620.0
92 96 436153700.0
93 89 -7274816.0
93 92 -79113620.0
93 93 34924190.0
93 96 77105370.0
93 97 -27649380.0
93 100 156219000.0
94 90 -7274816.0
94 91 79113620.0
94 94 34924190.0
94 95 -77105370.0
94 98 -27649380.0
94 99 -156219000.0
95 90 -79113620.0
95 91 436153700.0
95 94 -77105370.0
95 95 2983709000.0
95 98 156219000.0
95 99 66132870.0
96 89 79113620.0
96 92 436153700.0
96 93 77105370.0
96 96 2983709000.0
96 97 -156219000.0
96 100 66132870.0
97 93 -27649380.0
97 96 -156219000.0
97 97 48551840.0
97 100 -53359540.0
97 101 -11655460.0
97 104 102859500.0
98 94 -27649380.0
98 95 156219000.0
98 98 52768840.0
98 99 53359540.0
98 102 -11655460.0
98 103 -102859500.0
99 94 -156219000.0
99 95 66132870.0
99 98 53359540.0
99 99 3129624000.0
99 102 102859500.0
99 103 384986800.0
100 93 156219000.0
100 96 66132870.0
100 97 -53359540.0
100 100 3129624000.0
100 101 -102859500.0
100 104 384986800.0
101 97 -11655460.0
101 100 -102859500.0
101 101 22825330.0
101 104 -2330634.0
101 105 -11169870.0
101 108 100528800.0
102 98 -11655460.0
102 99 102859500.0
102 102 22825330.0
102 103 2330634.0
102 106 -11169870.0
102 107 -100528800.0
103 98 -102859500.0
103 99 384986800.0
103 102 2330634.0
103 103 2847825000.0
103 106 100528800.0
103 107 392176000.0
104 97 102859500.0
104 100 384986800.0
104 101 -2330634.0
104 104 2847825000.0
104 105 -100528800.0
104 108 392176000.0
105 101 -11169870.0
105 104 -100528800.0
105 105 80076050.0
105 108 102312400.0
105 109 -59659180.0
105 112 202841200.0
106 102 -11169870.0
106 103 100528800.0
106 106 84293050.0
106 107 -102312400.0
106 110 -59659180.0
106 111 -202841200.0
107 102 -100528800.0
107 103 392176000.0
107 106 -102312400.0
107 107 3463841000.0
107 110 202841200.0
107 111 -667178200.0
108 101 100528800.0
108 104 392176000.0
108 105 102312400.0
108 108 3463841000.0
108 109 -202841200.0
108 112 -667178200.0
109 105 -59659180.0
109 108 -202841200.0
109 109 59659180.0
109 112 -202841200.0
110 106 -59659180.0
110 107 202841200.0
110 110 59659180.0
110 111 202841200.0
111 106 -202841200.0
111 107 -667178200.0
111 110 202841200.0
111 111 2046498000.0
112 105 202841200.0
112 108 -667178200.0
112 109 -202841200.0
112 112 2046498000.0
