%%MatrixMarket matrix coordinate real general
% migrated from Universal blas/matrices/bcsstk04.hpp (universal#1210)
132 132 3648
1 1 1996.027
1 2 567.5156
1 3 775.4191
1 6 -801.6541
1 7 -1386.472
1 13 -1.233873
1 18 -592.2589
1 19 -490.41
1 20 -489.9737
1 24 -209.3951
1 25 -58.95556
1 26 -38.77095
1 27 -387.7095
1 28 1.455192e-11
1 29 6055.382
1 30 -605.5382
2 1 567.5156
2 2 1996.027
2 3 775.4191
2 6 801.6541
2 8 -1.233873
2 12 592.2589
2 14 -1386.472
2 19 -489.9737
2 20 -490.41
2 24 209.3951
2 25 -38.77095
2 26 -58.95556
2 27 -387.7095
2 28 -6055.382
2 29 -1.455192e-11
2 30 605.5382
3 1 775.4191
3 2 775.4191
3 3 7797.464
3 4 801.6541
3 5 -801.6541
3 9 -1.233873
3 11 -592.2589
3 15 -1.233873
3 16 592.2589
3 21 -0.4362399
3 22 209.3951
3 23 -209.3951
3 25 -387.7095
3 26 -387.7095
3 27 -3897.28
3 28 605.5382
3 29 -605.5382
4 3 801.6541
4 4 5518107.0
4 5 -145964.8
4 6 -387544.4
4 10 -75809.14
4 15 -592.2589
4 16 189522.9
4 21 -209.3951
4 22 40203.87
4 23 -93809.03
4 25 1.455192e-11
4 26 6055.382
4 27 -605.5382
4 28 1218343.0
4 29 -16955.07
4 30 -169550.7
5 3 -801.6541
5 4 -145964.8
5 5 5518107.0
5 6 -387544.4
5 9 592.2589
5 11 189522.9
5 17 -75809.14
5 21 209.3951
5 22 -93809.03
5 23 40203.87
5 25 -6055.382
5 26 -1.455192e-11
5 27 605.5382
5 28 -16955.07
5 29 1218343.0
5 30 -169550.7
6 1 -801.6541
6 2 801.6541
6 4 -387544.4
6 5 -387544.4
6 6 2091864.0
6 8 -592.2589
6 12 189522.9
6 13 592.2589
6 18 189522.9
6 19 209.3951
6 20 -209.3951
6 24 134012.9
6 25 605.5382
6 26 -605.5382
6 28 -169550.7
6 29 -169550.7
6 30 -460209.0
7 1 -1386.472
7 7 3068.635
7 8 -709.445
7 9 -1532.376
7 11 1022.162
7 12 -1619.384
7 13 -490.41
7 14 489.9737
7 18 -209.3951
7 19 -1.233873
7 24 -592.2589
7 25 -1066.174
7 26 70.9647
7 27 709.647
7 29 511.0812
7 30 -51.10812
7 31 -58.95556
7 32 38.77095
7 33 387.7095
7 34 -1.455192e-11
7 35 6055.382
7 36 -605.5382
7 43 -6.434584
7 44 70.9647
7 45 47.3098
7 47 511.0812
7 48 -766.6218
8 2 -1.233873
8 6 -592.2589
8 7 -709.445
8 8 3068.635
8 9 1532.376
8 10 -1022.162
8 12 -1619.384
8 13 489.9737
8 14 -490.41
8 18 -209.3951
8 20 -1386.472
8 25 70.9647
8 26 -6.434584
8 27 -47.3098
8 28 -511.0812
8 30 -766.6218
8 31 38.77095
8 32 -58.95556
8 33 -387.7095
8 34 -6055.382
8 35 1.455192e-11
8 36 -605.5382
8 43 70.9647
8 44 -1066.174
8 45 -709.647
8 46 -511.0812
8 48 -51.10812
9 3 -1.233873
9 5 592.2589
9 7 -1532.376
9 8 1532.376
9 9 8747.067
9 10 1619.384
9 11 1619.384
9 15 -0.4362399
9 16 209.3951
9 17 209.3951
9 21 -1.233873
9 22 592.2589
9 25 709.647
9 26 -47.3098
9 27 -474.8016
9 28 51.10812
9 29 766.6218
9 30 8.673617e-19
9 31 387.7095
9 32 -387.7095
9 33 -3897.28
9 34 605.5382
9 35 605.5382
9 43 47.3098
9 44 -709.647
9 45 -474.8016
9 46 766.6218
9 47 51.10812
9 48 -8.673617e-19
10 4 -75809.14
10 8 -1022.162
10 9 1619.384
10 10 6481393.0
10 11 195028.6
10 12 649218.0
10 15 -209.3951
10 16 40203.87
10 17 93809.03
10 21 -592.2589
10 22 189522.9
10 26 511.0812
10 27 -51.10812
10 28 11243.79
10 29 21465.41
10 30 214654.1
10 31 -1.455192e-11
10 32 6055.382
10 33 -605.5382
10 34 1218343.0
10 35 16955.07
10 36 169550.7
10 44 511.0812
10 45 -766.6218
10 46 331793.9
10 47 21465.41
10 48 14310.27
11 3 -592.2589
11 5 189522.9
11 7 1022.162
11 9 1619.384
11 10 195028.6
11 11 6481393.0
11 12 -649218.0
11 15 -209.3951
11 16 93809.03
11 17 40203.87
11 23 -75809.14
11 25 -511.0812
11 27 -766.6218
11 28 21465.41
11 29 331793.9
11 30 -14310.27
11 31 -6055.382
11 32 1.455192e-11
11 33 -605.5382
11 34 16955.07
11 35 1218343.0
11 36 -169550.7
11 43 -511.0812
11 45 -51.10812
11 46 21465.41
11 47 11243.79
11 48 -214654.1
12 2 592.2589
12 6 189522.9
12 7 -1619.384
12 8 -1619.384
12 10 649218.0
12 11 -649218.0
12 12 3097672.0
12 13 209.3951
12 14 209.3951
12 18 134012.9
12 19 592.2589
12 24 189522.9
12 25 51.10812
12 26 766.6218
12 27 8.673617e-19
12 28 214654.1
12 29 -14310.27
12 30 190122.2
12 31 605.5382
12 32 605.5382
12 34 169550.7
12 35 -169550.7
12 36 -460209.0
12 43 766.6218
12 44 51.10812
12 45 -8.673617e-19
12 46 14310.27
12 47 -214654.1
12 48 190122.2
13 1 -1.233873
13 6 592.2589
13 7 -490.41
13 8 489.9737
13 12 209.3951
13 13 3068.635
13 14 -709.445
13 15 1532.376
13 17 1022.162
13 18 1619.384
13 19 -1386.472
13 25 -6.434584
13 26 70.9647
13 27 -47.3098
13 29 511.0812
13 30 766.6218
13 37 -58.95556
13 38 38.77095
13 39 -387.7095
13 40 -1.455192e-11
13 41 6055.382
13 42 605.5382
13 43 -1066.174
13 44 70.9647
13 45 -709.647
13 47 511.0812
13 48 51.10812
14 2 -1386.472
14 7 489.9737
14 8 -490.41
14 12 209.3951
14 13 -709.445
14 14 3068.635
14 15 -1532.376
14 16 -1022.162
14 18 1619.384
14 20 -1.233873
14 24 592.2589
14 25 70.9647
14 26 -1066.174
14 27 709.647
14 28 -511.0812
14 30 51.10812
14 37 38.77095
14 38 -58.95556
14 39 387.7095
14 40 -6055.382
14 41 1.455192e-11
14 42 605.5382
14 43 70.9647
14 44 -6.434584
14 45 47.3098
14 46 -511.0812
14 48 766.6218
15 3 -1.233873
15 4 -592.2589
15 9 -0.4362399
15 10 -209.3951
15 11 -209.3951
15 13 1532.376
15 14 -1532.376
15 15 8747.067
15 16 -1619.384
15 17 -1619.384
15 21 -1.233873
15 23 -592.2589
15 25 -47.3098
15 26 709.647
15 27 -474.8016
15 28 -766.6218
15 29 -51.10812
15 30 -8.673617e-19
15 37 -387.7095
15 38 387.7095
15 39 -3897.28
15 40 -605.5382
15 41 -605.5382
15 43 -709.647
15 44 47.3098
15 45 -474.8016
15 46 -51.10812
15 47 -766.6218
15 48 8.673617e-19
16 3 592.2589
16 4 189522.9
16 9 209.3951
16 10 40203.87
16 11 93809.03
16 14 -1022.162
16 15 -1619.384
16 16 6481393.0
16 17 195028.6
16 18 -649218.0
16 22 -75809.14
16 26 511.0812
16 27 766.6218
16 28 331793.9
16 29 21465.41
16 30 -14310.27
16 37 -1.455192e-11
16 38 6055.382
16 39 605.5382
16 40 1218343.0
16 41 16955.07
16 42 -169550.7
16 44 511.0812
16 45 51.10812
16 46 11243.79
16 47 21465.41
16 48 -214654.1
17 5 -75809.14
17 9 209.3951
17 10 93809.03
17 11 40203.87
17 13 1022.162
17 15 -1619.384
17 16 195028.6
17 17 6481393.0
17 18 649218.0
17 21 592.2589
17 23 189522.9
17 25 -511.0812
17 27 51.10812
17 28 21465.41
17 29 11243.79
17 30 214654.1
17 37 -6055.382
17 38 1.455192e-11
17 39 605.5382
17 40 16955.07
17 41 1218343.0
17 42 169550.7
17 43 -511.0812
17 45 766.6218
17 46 21465.41
17 47 331793.9
17 48 14310.27
18 1 -592.2589
18 6 189522.9
18 7 -209.3951
18 8 -209.3951
18 12 134012.9
18 13 1619.384
18 14 1619.384
18 16 -649218.0
18 17 649218.0
18 18 3097672.0
18 20 -592.2589
18 24 189522.9
18 25 -766.6218
18 26 -51.10812
18 27 -8.673617e-19
18 28 -14310.27
18 29 214654.1
18 30 190122.2
18 37 -605.5382
18 38 -605.5382
18 40 -169550.7
18 41 169550.7
18 42 -460209.0
18 43 -51.10812
18 44 -766.6218
18 45 8.673617e-19
18 46 -214654.1
18 47 14310.27
18 48 190122.2
19 1 -490.41
19 2 -489.9737
19 6 209.3951
19 7 -1.233873
19 12 592.2589
19 13 -1386.472
19 19 1996.027
19 20 567.5156
19 21 -775.4191
19 24 801.6541
19 43 -58.95556
19 44 -38.77095
19 45 387.7095
19 46 1.455192e-11
19 47 6055.382
19 48 605.5382
20 1 -489.9737
20 2 -490.41
20 6 -209.3951
20 8 -1386.472
20 14 -1.233873
20 18 -592.2589
20 19 567.5156
20 20 1996.027
20 21 -775.4191
20 24 -801.6541
20 43 -38.77095
20 44 -58.95556
20 45 387.7095
20 46 -6055.382
20 47 -1.455192e-11
20 48 -605.5382
21 3 -0.4362399
21 4 -209.3951
21 5 209.3951
21 9 -1.233873
21 10 -592.2589
21 15 -1.233873
21 17 592.2589
21 19 -775.4191
21 20 -775.4191
21 21 7797.464
21 22 -801.6541
21 23 801.6541
21 43 387.7095
21 44 387.7095
21 45 -3897.28
21 46 -605.5382
21 47 605.5382
22 3 209.3951
22 4 40203.87
22 5 -93809.03
22 9 592.2589
22 10 189522.9
22 16 -75809.14
22 21 -801.6541
22 22 5518107.0
22 23 -145964.8
22 24 387544.4
22 43 1.455192e-11
22 44 6055.382
22 45 605.5382
22 46 1218343.0
22 47 -16955.07
22 48 169550.7
23 3 -209.3951
23 4 -93809.03
23 5 40203.87
23 11 -75809.14
23 15 -592.2589
23 17 189522.9
23 21 801.6541
23 22 -145964.8
23 23 5518107.0
23 24 387544.4
23 43 -6055.382
23 44 -1.455192e-11
23 45 -605.5382
23 46 -16955.07
23 47 1218343.0
23 48 169550.7
24 1 -209.3951
24 2 209.3951
24 6 134012.9
24 7 -592.2589
24 12 189522.9
24 14 592.2589
24 18 189522.9
24 19 801.6541
24 20 -801.6541
24 22 387544.4
24 23 387544.4
24 24 2091864.0
24 43 -605.5382
24 44 605.5382
24 46 169550.7
24 47 169550.7
24 48 -460209.0
25 1 -58.95556
25 2 -38.77095
25 3 -387.7095
25 4 1.455192e-11
25 5 -6055.382
25 6 605.5382
25 7 -1066.174
25 8 70.9647
25 9 709.647
25 11 -511.0812
25 12 51.10812
25 13 -6.434584
25 14 70.9647
25 15 -47.3098
25 17 -511.0812
25 18 -766.6218
25 25 4408.762
25 26 658.6632
25 27 991.6195
25 29 333.9655
25 30 -2711.862
25 31 -1584.539
25 37 -1.841816
25 42 -773.5627
25 43 -560.5448
25 44 -559.8936
25 48 -273.4957
25 49 -58.95556
25 50 -38.77095
25 51 -387.7095
25 52 1.455192e-11
25 53 6055.382
25 54 -605.5382
25 55 -1062.781
25 56 -81.57849
25 57 -815.7849
25 59 678.064
25 60 -67.8064
25 61 -8.535482
25 62 -81.57849
25 63 -62.75269
25 65 678.064
25 66 -881.4832
26 1 -38.77095
26 2 -58.95556
26 3 -387.7095
26 4 6055.382
26 5 -1.455192e-11
26 6 -605.5382
26 7 70.9647
26 8 -6.434584
26 9 -47.3098
26 10 511.0812
26 12 766.6218
26 13 70.9647
26 14 -1066.174
26 15 709.647
26 16 511.0812
26 18 -51.10812
26 25 658.6632
26 26 4408.762
26 27 991.6195
26 28 -333.9655
26 30 2711.862
26 32 -1.841816
26 36 773.5627
26 38 -1584.539
26 43 -559.8936
26 44 -560.5448
26 48 273.4957
26 49 -38.77095
26 50 -58.95556
26 51 -387.7095
26 52 -6055.382
26 53 -1.455192e-11
26 54 605.5382
26 55 -81.57849
26 56 -8.535482
26 57 -62.75269
26 58 -678.064
26 60 881.4832
26 61 -81.57849
26 62 -1062.781
26 63 -815.7849
26 64 -678.064
26 66 67.8064
27 1 -387.7095
27 2 -387.7095
27 3 -3897.28
27 4 -605.5382
27 5 605.5382
27 7 709.647
27 8 -47.3098
27 9 -474.8016
27 10 -51.10812
27 11 -766.6218
27 12 8.673617e-19
27 13 -47.3098
27 14 709.647
27 15 -474.8016
27 16 766.6218
27 17 51.10812
27 18 -8.673617e-19
27 25 991.6195
27 26 991.6195
27 27 10008.07
27 28 2711.862
27 29 -2711.862
27 33 -1.841816
27 35 -773.5627
27 39 -1.841816
27 40 773.5627
27 45 -0.6511802
27 46 273.4957
27 47 -273.4957
27 49 -387.7095
27 50 -387.7095
27 51 -3897.28
27 52 605.5382
27 53 -605.5382
27 55 -815.7849
27 56 -62.75269
27 57 -629.7871
27 58 67.8064
27 59 -881.4832
27 61 -62.75269
27 62 -815.7849
27 63 -629.7871
27 64 881.4832
27 65 -67.8064
28 1 1.455192e-11
28 2 -6055.382
28 3 605.5382
28 4 1218343.0
28 5 -16955.07
28 6 -169550.7
28 8 -511.0812
28 9 51.10812
28 10 11243.79
28 11 21465.41
28 12 214654.1
28 14 -511.0812
28 15 -766.6218
28 16 331793.9
28 17 21465.41
28 18 -14310.27
28 26 -333.9655
28 27 2711.862
28 28 7665097.0
28 29 -168631.6
28 30 -462352.7
28 34 -86639.02
28 39 -773.5627
28 40 216597.5
28 45 -273.4957
28 46 45947.28
28 47 -107210.3
28 49 1.455192e-11
28 50 6055.382
28 51 -605.5382
28 52 1218343.0
28 53 -16955.07
28 54 -169550.7
28 56 678.064
28 57 -67.8064
28 58 45294.67
28 59 -24681.53
28 60 -246815.3
28 62 678.064
28 63 -881.4832
28 64 364256.0
28 65 -24681.53
28 66 -18985.79
29 1 6055.382
29 2 -1.455192e-11
29 3 -605.5382
29 4 -16955.07
29 5 1218343.0
29 6 -169550.7
29 7 511.0812
29 9 766.6218
29 10 21465.41
29 11 331793.9
29 12 -14310.27
29 13 511.0812
29 15 -51.10812
29 16 21465.41
29 17 11243.79
29 18 214654.1
29 25 333.9655
29 27 -2711.862
29 28 -168631.6
29 29 7665097.0
29 30 -462352.7
29 33 773.5627
29 35 216597.5
29 41 -86639.02
29 45 273.4957
29 46 -107210.3
29 47 45947.28
29 49 -6055.382
29 50 -1.455192e-11
29 51 605.5382
29 52 -16955.07
29 53 1218343.0
29 54 -169550.7
29 55 -678.064
29 57 881.4832
29 58 -24681.53
29 59 364256.0
29 60 -18985.79
29 61 -678.064
29 63 67.8064
29 64 -24681.53
29 65 45294.67
29 66 -246815.3
30 1 -605.5382
30 2 605.5382
30 4 -169550.7
30 5 -169550.7
30 6 -460209.0
30 7 -51.10812
30 8 -766.6218
30 9 8.673617e-19
30 10 214654.1
30 11 -14310.27
30 12 190122.2
30 13 766.6218
30 14 51.10812
30 15 -8.673617e-19
30 16 -14310.27
30 17 214654.1
30 18 190122.2
30 25 -2711.862
30 26 2711.862
30 28 -462352.7
30 29 -462352.7
30 30 4274918.0
30 32 -773.5627
30 36 216597.5
30 37 773.5627
30 42 216597.5
30 43 273.4957
30 44 -273.4957
30 48 153157.6
30 49 605.5382
30 50 -605.5382
30 52 -169550.7
30 53 -169550.7
30 54 -460209.0
30 55 67.8064
30 56 -881.4832
30 58 -246815.3
30 59 -18985.79
30 60 176296.6
30 61 881.4832
30 62 -67.8064
30 64 -18985.79
30 65 -246815.3
30 66 176296.6
31 7 -58.95556
31 8 38.77095
31 9 387.7095
31 10 -1.455192e-11
31 11 -6055.382
31 12 605.5382
31 25 -1584.539
31 31 2264.837
31 32 -637.4356
31 33 -775.4191
31 36 -1047.058
31 37 -560.5448
31 38 559.8936
31 42 -273.4957
31 43 -1.841816
31 48 -773.5627
31 55 -58.95556
31 56 38.77095
31 57 387.7095
31 58 -1.455192e-11
31 59 6055.382
31 60 -605.5382
32 7 38.77095
32 8 -58.95556
32 9 -387.7095
32 10 6055.382
32 11 1.455192e-11
32 12 605.5382
32 26 -1.841816
32 30 -773.5627
32 31 -637.4356
32 32 2264.837
32 33 775.4191
32 36 -1047.058
32 37 559.8936
32 38 -560.5448
32 42 -273.4957
32 44 -1584.539
32 55 38.77095
32 56 -58.95556
32 57 -387.7095
32 58 -6055.382
32 59 1.455192e-11
32 60 -605.5382
33 7 387.7095
33 8 -387.7095
33 9 -3897.28
33 10 -605.5382
33 11 -605.5382
33 27 -1.841816
33 29 773.5627
33 31 -775.4191
33 32 775.4191
33 33 7798.895
33 34 1047.058
33 35 1047.058
33 39 -0.6511802
33 40 273.4957
33 41 273.4957
33 45 -1.841816
33 46 773.5627
33 55 387.7095
33 56 -387.7095
33 57 -3897.28
33 58 605.5382
33 59 605.5382
34 7 -1.455192e-11
34 8 -6055.382
34 9 605.5382
34 10 1218343.0
34 11 16955.07
34 12 169550.7
34 28 -86639.02
34 33 1047.058
34 34 5606060.0
34 35 161280.5
34 36 387544.4
34 39 -273.4957
34 40 45947.28
34 41 107210.3
34 45 -773.5627
34 46 216597.5
34 55 -1.455192e-11
34 56 6055.382
34 57 -605.5382
34 58 1218343.0
34 59 16955.07
34 60 169550.7
35 7 6055.382
35 8 1.455192e-11
35 9 605.5382
35 10 16955.07
35 11 1218343.0
35 12 -169550.7
35 27 -773.5627
35 29 216597.5
35 33 1047.058
35 34 161280.5
35 35 5606060.0
35 36 -387544.4
35 39 -273.4957
35 40 107210.3
35 41 45947.28
35 47 -86639.02
35 55 -6055.382
35 56 1.455192e-11
35 57 -605.5382
35 58 16955.07
35 59 1218343.0
35 60 -169550.7
36 7 -605.5382
36 8 -605.5382
36 10 169550.7
36 11 -169550.7
36 12 -460209.0
36 26 773.5627
36 30 216597.5
36 31 -1047.058
36 32 -1047.058
36 34 387544.4
36 35 -387544.4
36 36 2238453.0
36 37 273.4957
36 38 273.4957
36 42 153157.6
36 43 773.5627
36 48 216597.5
36 55 605.5382
36 56 605.5382
36 58 169550.7
36 59 -169550.7
36 60 -460209.0
37 13 -58.95556
37 14 38.77095
37 15 -387.7095
37 16 -1.455192e-11
37 17 -6055.382
37 18 -605.5382
37 25 -1.841816
37 30 773.5627
37 31 -560.5448
37 32 559.8936
37 36 273.4957
37 37 2264.837
37 38 -637.4356
37 39 775.4191
37 42 1047.058
37 43 -1584.539
37 61 -58.95556
37 62 38.77095
37 63 -387.7095
37 64 -1.455192e-11
37 65 6055.382
37 66 605.5382
38 13 38.77095
38 14 -58.95556
38 15 387.7095
38 16 6055.382
38 17 1.455192e-11
38 18 -605.5382
38 26 -1584.539
38 31 559.8936
38 32 -560.5448
38 36 273.4957
38 37 -637.4356
38 38 2264.837
38 39 -775.4191
38 42 1047.058
38 44 -1.841816
38 48 773.5627
38 61 38.77095
38 62 -58.95556
38 63 387.7095
38 64 -6055.382
38 65 1.455192e-11
38 66 605.5382
39 13 -387.7095
39 14 387.7095
39 15 -3897.28
39 16 605.5382
39 17 605.5382
39 27 -1.841816
39 28 -773.5627
39 33 -0.6511802
39 34 -273.4957
39 35 -273.4957
39 37 775.4191
39 38 -775.4191
39 39 7798.895
39 40 -1047.058
39 41 -1047.058
39 45 -1.841816
39 47 -773.5627
39 61 -387.7095
39 62 387.7095
39 63 -3897.28
39 64 -605.5382
39 65 -605.5382
40 13 -1.455192e-11
40 14 -6055.382
40 15 -605.5382
40 16 1218343.0
40 17 16955.07
40 18 -169550.7
40 27 773.5627
40 28 216597.5
40 33 273.4957
40 34 45947.28
40 35 107210.3
40 39 -1047.058
40 40 5606060.0
40 41 161280.5
40 42 -387544.4
40 46 -86639.02
40 61 -1.455192e-11
40 62 6055.382
40 63 605.5382
40 64 1218343.0
40 65 16955.07
40 66 -169550.7
41 13 6055.382
41 14 1.455192e-11
41 15 -605.5382
41 16 16955.07
41 17 1218343.0
41 18 169550.7
41 29 -86639.02
41 33 273.4957
41 34 107210.3
41 35 45947.28
41 39 -1047.058
41 40 161280.5
41 41 5606060.0
41 42 387544.4
41 45 773.5627
41 47 216597.5
41 61 -6055.382
41 62 1.455192e-11
41 63 605.5382
41 64 16955.07
41 65 1218343.0
41 66 169550.7
42 13 605.5382
42 14 605.5382
42 16 -169550.7
42 17 169550.7
42 18 -460209.0
42 25 -773.5627
42 30 216597.5
42 31 -273.4957
42 32 -273.4957
42 36 153157.6
42 37 1047.058
42 38 1047.058
42 40 -387544.4
42 41 387544.4
42 42 2238453.0
42 44 -773.5627
42 48 216597.5
42 61 -605.5382
42 62 -605.5382
42 64 -169550.7
42 65 169550.7
42 66 -460209.0
43 7 -6.434584
43 8 70.9647
43 9 47.3098
43 11 -511.0812
43 12 766.6218
43 13 -1066.174
43 14 70.9647
43 15 -709.647
43 17 -511.0812
43 18 -51.10812
43 19 -58.95556
43 20 -38.77095
43 21 387.7095
43 22 1.455192e-11
43 23 -6055.382
43 24 -605.5382
43 25 -560.5448
43 26 -559.8936
43 30 273.4957
43 31 -1.841816
43 36 773.5627
43 37 -1584.539
43 43 4408.762
43 44 658.6632
43 45 -991.6195
43 47 333.9655
43 48 2711.862
43 55 -8.535482
43 56 -81.57849
43 57 62.75269
43 59 678.064
43 60 881.4832
43 61 -1062.781
43 62 -81.57849
43 63 815.7849
43 65 678.064
43 66 67.8064
43 67 -58.95556
43 68 -38.77095
43 69 387.7095
43 70 1.455192e-11
43 71 6055.382
43 72 605.5382
44 7 70.9647
44 8 -1066.174
44 9 -709.647
44 10 511.0812
44 12 51.10812
44 13 70.9647
44 14 -6.434584
44 15 47.3098
44 16 511.0812
44 18 -766.6218
44 19 -38.77095
44 20 -58.95556
44 21 387.7095
44 22 6055.382
44 23 -1.455192e-11
44 24 605.5382
44 25 -559.8936
44 26 -560.5448
44 30 -273.4957
44 32 -1584.539
44 38 -1.841816
44 42 -773.5627
44 43 658.6632
44 44 4408.762
44 45 -991.6195
44 46 -333.9655
44 48 -2711.862
44 55 -81.57849
44 56 -1062.781
44 57 815.7849
44 58 -678.064
44 60 -67.8064
44 61 -81.57849
44 62 -8.535482
44 63 62.75269
44 64 -678.064
44 66 -881.4832
44 67 -38.77095
44 68 -58.95556
44 69 387.7095
44 70 -6055.382
44 71 -1.455192e-11
44 72 -605.5382
45 7 47.3098
45 8 -709.647
45 9 -474.8016
45 10 -766.6218
45 11 -51.10812
45 12 -8.673617e-19
45 13 -709.647
45 14 47.3098
45 15 -474.8016
45 16 51.10812
45 17 766.6218
45 18 8.673617e-19
45 19 387.7095
45 20 387.7095
45 21 -3897.28
45 22 605.5382
45 23 -605.5382
45 27 -0.6511802
45 28 -273.4957
45 29 273.4957
45 33 -1.841816
45 34 -773.5627
45 39 -1.841816
45 41 773.5627
45 43 -991.6195
45 44 -991.6195
45 45 10008.07
45 46 -2711.862
45 47 2711.862
45 55 62.75269
45 56 815.7849
45 57 -629.7871
45 58 -881.4832
45 59 67.8064
45 61 815.7849
45 62 62.75269
45 63 -629.7871
45 64 -67.8064
45 65 881.4832
45 67 387.7095
45 68 387.7095
45 69 -3897.28
45 70 -605.5382
45 71 605.5382
46 8 -511.0812
46 9 766.6218
46 10 331793.9
46 11 21465.41
46 12 14310.27
46 14 -511.0812
46 15 -51.10812
46 16 11243.79
46 17 21465.41
46 18 -214654.1
46 19 1.455192e-11
46 20 -6055.382
46 21 -605.5382
46 22 1218343.0
46 23 -16955.07
46 24 169550.7
46 27 273.4957
46 28 45947.28
46 29 -107210.3
46 33 773.5627
46 34 216597.5
46 40 -86639.02
46 44 -333.9655
46 45 -2711.862
46 46 7665097.0
46 47 -168631.6
46 48 462352.7
46 56 678.064
46 57 881.4832
46 58 364256.0
46 59 -24681.53
46 60 18985.79
46 62 678.064
46 63 67.8064
46 64 45294.67
46 65 -24681.53
46 66 246815.3
46 67 1.455192e-11
46 68 6055.382
46 69 605.5382
46 70 1218343.0
46 71 -16955.07
46 72 169550.7
47 7 511.0812
47 9 51.10812
47 10 21465.41
47 11 11243.79
47 12 -214654.1
47 13 511.0812
47 15 -766.6218
47 16 21465.41
47 17 331793.9
47 18 14310.27
47 19 6055.382
47 20 -1.455192e-11
47 21 605.5382
47 22 -16955.07
47 23 1218343.0
47 24 169550.7
47 27 -273.4957
47 28 -107210.3
47 29 45947.28
47 35 -86639.02
47 39 -773.5627
47 41 216597.5
47 43 333.9655
47 45 2711.862
47 46 -168631.6
47 47 7665097.0
47 48 462352.7
47 55 -678.064
47 57 -67.8064
47 58 -24681.53
47 59 45294.67
47 60 246815.3
47 61 -678.064
47 63 -881.4832
47 64 -24681.53
47 65 364256.0
47 66 18985.79
47 67 -6055.382
47 68 -1.455192e-11
47 69 -605.5382
47 70 -16955.07
47 71 1218343.0
47 72 169550.7
48 7 -766.6218
48 8 -51.10812
48 9 -8.673617e-19
48 10 14310.27
48 11 -214654.1
48 12 190122.2
48 13 51.10812
48 14 766.6218
48 15 8.673617e-19
48 16 -214654.1
48 17 14310.27
48 18 190122.2
48 19 605.5382
48 20 -605.5382
48 22 169550.7
48 23 169550.7
48 24 -460209.0
48 25 -273.4957
48 26 273.4957
48 30 153157.6
48 31 -773.5627
48 36 216597.5
48 38 773.5627
48 42 216597.5
48 43 2711.862
48 44 -2711.862
48 46 462352.7
48 47 462352.7
48 48 4274918.0
48 55 -881.4832
48 56 67.8064
48 58 18985.79
48 59 246815.3
48 60 176296.6
48 61 -67.8064
48 62 881.4832
48 64 246815.3
48 65 18985.79
48 66 176296.6
48 67 -605.5382
48 68 605.5382
48 70 169550.7
48 71 169550.7
48 72 -460209.0
49 25 -58.95556
49 26 -38.77095
49 27 -387.7095
49 28 1.455192e-11
49 29 -6055.382
49 30 605.5382
49 49 1617.715
49 50 468.8212
49 51 775.4191
49 54 -478.4738
49 55 -1107.196
49 61 -0.9819293
49 66 -353.4946
49 67 -391.6264
49 68 -391.2793
49 72 -124.9792
49 73 -58.95556
49 74 -38.77095
49 75 -387.7095
49 76 1.455192e-11
49 77 6055.382
49 78 -605.5382
50 25 -38.77095
50 26 -58.95556
50 27 -387.7095
50 28 6055.382
50 29 -1.455192e-11
50 30 -605.5382
50 49 468.8212
50 50 1617.715
50 51 775.4191
50 54 478.4738
50 56 -0.9819293
50 60 353.4946
50 62 -1107.196
50 67 -391.2793
50 68 -391.6264
50 72 124.9792
50 73 -38.77095
50 74 -58.95556
50 75 -387.7095
50 76 -6055.382
50 77 -1.455192e-11
50 78 605.5382
51 25 -387.7095
51 26 -387.7095
51 27 -3897.28
51 28 -605.5382
51 29 605.5382
51 49 775.4191
51 50 775.4191
51 51 7796.871
51 52 478.4738
51 53 -478.4738
51 57 -0.9819293
51 59 -353.4946
51 63 -0.9819293
51 64 353.4946
51 69 -0.3471644
51 70 124.9792
51 71 -124.9792
51 73 -387.7095
51 74 -387.7095
51 75 -3897.28
51 76 605.5382
51 77 -605.5382
52 25 1.455192e-11
52 26 -6055.382
52 27 605.5382
52 28 1218343.0
52 29 -16955.07
52 30 -169550.7
52 51 478.4738
52 52 5178038.0
52 53 -86746.46
52 54 -387544.4
52 58 -33935.48
52 63 -353.4946
52 64 84838.69
52 69 -124.9792
52 70 17997.0
52 71 -41993.01
52 73 1.455192e-11
52 74 6055.382
52 75 -605.5382
52 76 1218343.0
52 77 -16955.07
52 78 -169550.7
53 25 6055.382
53 26 -1.455192e-11
53 27 -605.5382
53 28 -16955.07
53 29 1218343.0
53 30 -169550.7
53 51 -478.4738
53 52 -86746.46
53 53 5178038.0
53 54 -387544.4
53 57 353.4946
53 59 84838.69
53 65 -33935.48
53 69 124.9792
53 70 -41993.01
53 71 17997.0
53 73 -6055.382
53 74 -1.455192e-11
53 75 605.5382
53 76 -16955.07
53 77 1218343.0
53 78 -169550.7
54 25 -605.5382
54 26 605.5382
54 28 -169550.7
54 29 -169550.7
54 30 -460209.0
54 49 -478.4738
54 50 478.4738
54 52 -387544.4
54 53 -387544.4
54 54 1525082.0
54 56 -353.4946
54 60 84838.69
54 61 353.4946
54 66 84838.69
54 67 124.9792
54 68 -124.9792
54 72 59990.02
54 73 605.5382
54 74 -605.5382
54 76 -169550.7
54 77 -169550.7
54 78 -460209.0
55 25 -1062.781
55 26 -81.57849
55 27 -815.7849
55 29 -678.064
55 30 67.8064
55 31 -58.95556
55 32 38.77095
55 33 387.7095
55 34 -1.455192e-11
55 35 -6055.382
55 36 605.5382
55 43 -8.535482
55 44 -81.57849
55 45 62.75269
55 47 -678.064
55 48 -881.4832
55 49 -1107.196
55 55 3721.652
55 56 -490.781
55 57 -1032.115
55 58 4.547474e-13
55 59 462.8057
55 60 -2383.511
55 61 -391.6264
55 62 391.2793
55 66 -124.9792
55 67 -0.9819293
55 72 -353.4946
55 73 -1021.174
55 74 92.55842
55 75 925.5842
55 77 909.4668
55 78 -90.94668
55 79 -58.95556
55 80 38.77095
55 81 387.7095
55 82 -1.455192e-11
55 83 6055.382
55 84 -605.5382
55 91 -11.44596
55 92 92.55842
55 93 84.14402
55 94 4.547474e-13
55 95 909.4668
55 96 -1000.414
56 25 -81.57849
56 26 -8.535482
56 27 -62.75269
56 28 678.064
56 30 -881.4832
56 31 38.77095
56 32 -58.95556
56 33 -387.7095
56 34 6055.382
56 35 1.455192e-11
56 36 605.5382
56 43 -81.57849
56 44 -1062.781
56 45 815.7849
56 46 678.064
56 48 67.8064
56 50 -0.9819293
56 54 -353.4946
56 55 -490.781
56 56 3721.652
56 57 1032.115
56 58 -462.8057
56 59 -4.547474e-13
56 60 -2383.511
56 61 391.2793
56 62 -391.6264
56 66 -124.9792
56 68 -1107.196
56 73 92.55842
56 74 -11.44596
56 75 -84.14402
56 76 -909.4668
56 77 -4.547474e-13
56 78 -1000.414
56 79 38.77095
56 80 -58.95556
56 81 -387.7095
56 82 -6055.382
56 83 1.455192e-11
56 84 -605.5382
56 91 92.55842
56 92 -1021.174
56 93 -925.5842
56 94 -909.4668
56 96 -90.94668
57 25 -815.7849
57 26 -62.75269
57 27 -629.7871
57 28 -67.8064
57 29 881.4832
57 31 387.7095
57 32 -387.7095
57 33 -3897.28
57 34 -605.5382
57 35 -605.5382
57 43 62.75269
57 44 815.7849
57 45 -629.7871
57 46 881.4832
57 47 -67.8064
57 51 -0.9819293
57 53 353.4946
57 55 -1032.115
57 56 1032.115
57 57 10745.39
57 58 2383.511
57 59 2383.511
57 63 -0.3471644
57 64 124.9792
57 65 124.9792
57 69 -0.9819293
57 70 353.4946
57 73 925.5842
57 74 -84.14402
57 75 -844.4717
57 76 90.94668
57 77 1000.414
57 79 387.7095
57 80 -387.7095
57 81 -3897.28
57 82 605.5382
57 83 605.5382
57 91 84.14402
57 92 -925.5842
57 93 -844.4717
57 94 1000.414
57 95 90.94668
58 26 -678.064
58 27 67.8064
58 28 45294.67
58 29 -24681.53
58 30 -246815.3
58 31 -1.455192e-11
58 32 -6055.382
58 33 605.5382
58 34 1218343.0
58 35 16955.07
58 36 169550.7
58 44 -678.064
58 45 -881.4832
58 46 364256.0
58 47 -24681.53
58 48 18985.79
58 52 -33935.48
58 55 4.547474e-13
58 56 -462.8057
58 57 2383.511
58 58 7533946.0
58 59 94358.0
58 60 476403.1
58 63 -124.9792
58 64 17997.0
58 65 41993.01
58 69 -353.4946
58 70 84838.69
58 74 909.4668
58 75 -90.94668
58 76 95675.91
58 77 28011.58
58 78 280115.8
58 79 -1.455192e-11
58 80 6055.382
58 81 -605.5382
58 82 1218343.0
58 83 16955.07
58 84 169550.7
58 91 4.547474e-13
58 92 909.4668
58 93 -1000.414
58 94 401256.8
58 95 28011.58
58 96 25465.07
59 25 678.064
59 27 -881.4832
59 28 -24681.53
59 29 364256.0
59 30 -18985.79
59 31 6055.382
59 32 1.455192e-11
59 33 605.5382
59 34 16955.07
59 35 1218343.0
59 36 -169550.7
59 43 678.064
59 45 67.8064
59 46 -24681.53
59 47 45294.67
59 48 246815.3
59 51 -353.4946
59 53 84838.69
59 55 462.8057
59 56 -4.547474e-13
59 57 2383.511
59 58 94358.0
59 59 7533946.0
59 60 -476403.1
59 63 -124.9792
59 64 41993.01
59 65 17997.0
59 71 -33935.48
59 73 -909.4668
59 74 -4.547474e-13
59 75 -1000.414
59 76 28011.58
59 77 401256.8
59 78 -25465.07
59 79 -6055.382
59 80 1.455192e-11
59 81 -605.5382
59 82 16955.07
59 83 1218343.0
59 84 -169550.7
59 91 -909.4668
59 93 -90.94668
59 94 28011.58
59 95 95675.91
59 96 -280115.8
60 25 -67.8064
60 26 881.4832
60 28 -246815.3
60 29 -18985.79
60 30 176296.6
60 31 -605.5382
60 32 -605.5382
60 34 169550.7
60 35 -169550.7
60 36 -460209.0
60 43 881.4832
60 44 -67.8064
60 46 18985.79
60 47 246815.3
60 48 176296.6
60 50 353.4946
60 54 84838.69
60 55 -2383.511
60 56 -2383.511
60 58 476403.1
60 59 -476403.1
60 60 3588894.0
60 61 124.9792
60 62 124.9792
60 66 59990.02
60 67 353.4946
60 72 84838.69
60 73 90.94668
60 74 1000.414
60 76 280115.8
60 77 -25465.07
60 78 149152.6
60 79 605.5382
60 80 605.5382
60 82 169550.7
60 83 -169550.7
60 84 -460209.0
60 91 1000.414
60 92 90.94668
60 94 25465.07
60 95 -280115.8
60 96 149152.6
61 25 -8.535482
61 26 -81.57849
61 27 -62.75269
61 29 -678.064
61 30 881.4832
61 37 -58.95556
61 38 38.77095
61 39 -387.7095
61 40 -1.455192e-11
61 41 -6055.382
61 42 -605.5382
61 43 -1062.781
61 44 -81.57849
61 45 815.7849
61 47 -678.064
61 48 -67.8064
61 49 -0.9819293
61 54 353.4946
61 55 -391.6264
61 56 391.2793
61 60 124.9792
61 61 3721.652
61 62 -490.781
61 63 1032.115
61 64 4.547474e-13
61 65 462.8057
61 66 2383.511
61 67 -1107.196
61 73 -11.44596
61 74 92.55842
61 75 -84.14402
61 76 4.547474e-13
61 77 909.4668
61 78 1000.414
61 85 -58.95556
61 86 38.77095
61 87 -387.7095
61 88 -1.455192e-11
61 89 6055.382
61 90 605.5382
61 91 -1021.174
61 92 92.55842
61 93 -925.5842
61 95 909.4668
61 96 90.94668
62 25 -81.57849
62 26 -1062.781
62 27 -815.7849
62 28 678.064
62 30 -67.8064
62 37 38.77095
62 38 -58.95556
62 39 387.7095
62 40 6055.382
62 41 1.455192e-11
62 42 -605.5382
62 43 -81.57849
62 44 -8.535482
62 45 62.75269
62 46 678.064
62 48 881.4832
62 50 -1107.196
62 55 391.2793
62 56 -391.6264
62 60 124.9792
62 61 -490.781
62 62 3721.652
62 63 -1032.115
62 64 -462.8057
62 65 -4.547474e-13
62 66 2383.511
62 68 -0.9819293
62 72 353.4946
62 73 92.55842
62 74 -1021.174
62 75 925.5842
62 76 -909.4668
62 78 90.94668
62 85 38.77095
62 86 -58.95556
62 87 387.7095
62 88 -6055.382
62 89 1.455192e-11
62 90 605.5382
62 91 92.55842
62 92 -11.44596
62 93 84.14402
62 94 -909.4668
62 95 -4.547474e-13
62 96 1000.414
63 25 -62.75269
63 26 -815.7849
63 27 -629.7871
63 28 -881.4832
63 29 67.8064
63 37 -387.7095
63 38 387.7095
63 39 -3897.28
63 40 605.5382
63 41 605.5382
63 43 815.7849
63 44 62.75269
63 45 -629.7871
63 46 67.8064
63 47 -881.4832
63 51 -0.9819293
63 52 -353.4946
63 57 -0.3471644
63 58 -124.9792
63 59 -124.9792
63 61 1032.115
63 62 -1032.115
63 63 10745.39
63 64 -2383.511
63 65 -2383.511
63 69 -0.9819293
63 71 -353.4946
63 73 -84.14402
63 74 925.5842
63 75 -844.4717
63 76 -1000.414
63 77 -90.94668
63 85 -387.7095
63 86 387.7095
63 87 -3897.28
63 88 -605.5382
63 89 -605.5382
63 91 -925.5842
63 92 84.14402
63 93 -844.4717
63 94 -90.94668
63 95 -1000.414
64 26 -678.064
64 27 881.4832
64 28 364256.0
64 29 -24681.53
64 30 -18985.79
64 37 -1.455192e-11
64 38 -6055.382
64 39 -605.5382
64 40 1218343.0
64 41 16955.07
64 42 -169550.7
64 44 -678.064
64 45 -67.8064
64 46 45294.67
64 47 -24681.53
64 48 246815.3
64 51 353.4946
64 52 84838.69
64 57 124.9792
64 58 17997.0
64 59 41993.01
64 61 4.547474e-13
64 62 -462.8057
64 63 -2383.511
64 64 7533946.0
64 65 94358.0
64 66 -476403.1
64 70 -33935.48
64 73 4.547474e-13
64 74 909.4668
64 75 1000.414
64 76 401256.8
64 77 28011.58
64 78 -25465.07
64 85 -1.455192e-11
64 86 6055.382
64 87 605.5382
64 88 1218343.0
64 89 16955.07
64 90 -169550.7
64 92 909.4668
64 93 90.94668
64 94 95675.91
64 95 28011.58
64 96 -280115.8
65 25 678.064
65 27 -67.8064
65 28 -24681.53
65 29 45294.67
65 30 -246815.3
65 37 6055.382
65 38 1.455192e-11
65 39 -605.5382
65 40 16955.07
65 41 1218343.0
65 42 169550.7
65 43 678.064
65 45 881.4832
65 46 -24681.53
65 47 364256.0
65 48 18985.79
65 53 -33935.48
65 57 124.9792
65 58 41993.01
65 59 17997.0
65 61 462.8057
65 62 -4.547474e-13
65 63 -2383.511
65 64 94358.0
65 65 7533946.0
65 66 476403.1
65 69 353.4946
65 71 84838.69
65 73 -909.4668
65 75 90.94668
65 76 28011.58
65 77 95675.91
65 78 280115.8
65 85 -6055.382
65 86 1.455192e-11
65 87 605.5382
65 88 16955.07
65 89 1218343.0
65 90 169550.7
65 91 -909.4668
65 92 -4.547474e-13
65 93 1000.414
65 94 28011.58
65 95 401256.8
65 96 25465.07
66 25 -881.4832
66 26 67.8064
66 28 -18985.79
66 29 -246815.3
66 30 176296.6
66 37 605.5382
66 38 605.5382
66 40 -169550.7
66 41 169550.7
66 42 -460209.0
66 43 67.8064
66 44 -881.4832
66 46 246815.3
66 47 18985.79
66 48 176296.6
66 49 -353.4946
66 54 84838.69
66 55 -124.9792
66 56 -124.9792
66 60 59990.02
66 61 2383.511
66 62 2383.511
66 64 -476403.1
66 65 476403.1
66 66 3588894.0
66 68 -353.4946
66 72 84838.69
66 73 -1000.414
66 74 -90.94668
66 76 -25465.07
66 77 280115.8
66 78 149152.6
66 85 -605.5382
66 86 -605.5382
66 88 -169550.7
66 89 169550.7
66 90 -460209.0
66 91 -90.94668
66 92 -1000.414
66 94 -280115.8
66 95 25465.07
66 96 149152.6
67 43 -58.95556
67 44 -38.77095
67 45 387.7095
67 46 1.455192e-11
67 47 -6055.382
67 48 -605.5382
67 49 -391.6264
67 50 -391.2793
67 54 124.9792
67 55 -0.9819293
67 60 353.4946
67 61 -1107.196
67 67 1617.715
67 68 468.8212
67 69 -775.4191
67 72 478.4738
67 91 -58.95556
67 92 -38.77095
67 93 387.7095
67 94 1.455192e-11
67 95 6055.382
67 96 605.5382
68 43 -38.77095
68 44 -58.95556
68 45 387.7095
68 46 6055.382
68 47 -1.455192e-11
68 48 605.5382
68 49 -391.2793
68 50 -391.6264
68 54 -124.9792
68 56 -1107.196
68 62 -0.9819293
68 66 -353.4946
68 67 468.8212
68 68 1617.715
68 69 -775.4191
68 72 -478.4738
68 91 -38.77095
68 92 -58.95556
68 93 387.7095
68 94 -6055.382
68 95 -1.455192e-11
68 96 -605.5382
69 43 387.7095
69 44 387.7095
69 45 -3897.28
69 46 605.5382
69 47 -605.5382
69 51 -0.3471644
69 52 -124.9792
69 53 124.9792
69 57 -0.9819293
69 58 -353.4946
69 63 -0.9819293
69 65 353.4946
69 67 -775.4191
69 68 -775.4191
69 69 7796.871
69 70 -478.4738
69 71 478.4738
69 91 387.7095
69 92 387.7095
69 93 -3897.28
69 94 -605.5382
69 95 605.5382
70 43 1.455192e-11
70 44 -6055.382
70 45 -605.5382
70 46 1218343.0
70 47 -16955.07
70 48 169550.7
70 51 124.9792
70 52 17997.0
70 53 -41993.01
70 57 353.4946
70 58 84838.69
70 64 -33935.48
70 69 -478.4738
70 70 5178038.0
70 71 -86746.46
70 72 387544.4
70 91 1.455192e-11
70 92 6055.382
70 93 605.5382
70 94 1218343.0
70 95 -16955.07
70 96 169550.7
71 43 6055.382
71 44 -1.455192e-11
71 45 605.5382
71 46 -16955.07
71 47 1218343.0
71 48 169550.7
71 51 -124.9792
71 52 -41993.01
71 53 17997.0
71 59 -33935.48
71 63 -353.4946
71 65 84838.69
71 69 478.4738
71 70 -86746.46
71 71 5178038.0
71 72 387544.4
71 91 -6055.382
71 92 -1.455192e-11
71 93 -605.5382
71 94 -16955.07
71 95 1218343.0
71 96 169550.7
72 43 605.5382
72 44 -605.5382
72 46 169550.7
72 47 169550.7
72 48 -460209.0
72 49 -124.9792
72 50 124.9792
72 54 59990.02
72 55 -353.4946
72 60 84838.69
72 62 353.4946
72 66 84838.69
72 67 478.4738
72 68 -478.4738
72 70 387544.4
72 71 387544.4
72 72 1525082.0
72 91 -605.5382
72 92 605.5382
72 94 169550.7
72 95 169550.7
72 96 -460209.0
73 49 -58.95556
73 50 -38.77095
73 51 -387.7095
73 52 1.455192e-11
73 53 -6055.382
73 54 605.5382
73 55 -1021.174
73 56 92.55842
73 57 925.5842
73 59 -909.4668
73 60 90.94668
73 61 -11.44596
73 62 92.55842
73 63 -84.14402
73 64 4.547474e-13
73 65 -909.4668
73 66 -1000.414
73 73 4360.107
73 74 1033.481
73 75 1067.137
73 76 4.547474e-13
73 77 631.4791
73 78 -3363.586
73 79 -1328.635
73 85 -1.696774
73 90 -509.0322
73 97 -941.8864
73 98 -937.0872
73 102 -719.8802
73 103 -58.95556
73 104 -38.77095
73 105 -387.7095
73 106 1.455192e-11
73 107 6055.382
73 108 -605.5382
73 109 -921.9425
73 110 -101.9843
73 111 -1019.843
73 112 9.094947e-13
73 113 1225.206
73 114 -122.5206
73 115 -15.41561
73 116 -101.9843
73 117 -113.3159
73 119 1225.206
73 120 -1102.686
74 49 -38.77095
74 50 -58.95556
74 51 -387.7095
74 52 6055.382
74 53 -1.455192e-11
74 54 -605.5382
74 55 92.55842
74 56 -11.44596
74 57 -84.14402
74 58 909.4668
74 59 -4.547474e-13
74 60 1000.414
74 61 92.55842
74 62 -1021.174
74 63 925.5842
74 64 909.4668
74 66 -90.94668
74 73 1033.481
74 74 4360.107
74 75 1067.137
74 76 -631.4791
74 77 -4.547474e-13
74 78 3363.586
74 80 -1.696774
74 84 509.0322
74 86 -1328.635
74 97 -937.0872
74 98 -941.8864
74 102 719.8802
74 103 -38.77095
74 104 -58.95556
74 105 -387.7095
74 106 -6055.382
74 107 -1.455192e-11
74 108 605.5382
74 109 -101.9843
74 110 -15.41561
74 111 -113.3159
74 112 -1225.206
74 114 1102.686
74 115 -101.9843
74 116 -921.9425
74 117 -1019.843
74 118 -1225.206
74 119 -9.094947e-13
74 120 122.5206
75 49 -387.7095
75 50 -387.7095
75 51 -3897.28
75 52 -605.5382
75 53 605.5382
75 55 925.5842
75 56 -84.14402
75 57 -844.4717
75 58 -90.94668
75 59 -1000.414
75 61 -84.14402
75 62 925.5842
75 63 -844.4717
75 64 1000.414
75 65 90.94668
75 73 1067.137
75 74 1067.137
75 75 11766.18
75 76 3363.586
75 77 -3363.586
75 81 -1.696774
75 83 -509.0322
75 87 -1.696774
75 88 509.0322
75 99 -4.799201
75 100 719.8802
75 101 -719.8802
75 103 -387.7095
75 104 -387.7095
75 105 -3897.28
75 106 605.5382
75 107 -605.5382
75 109 -1019.843
75 110 -113.3159
75 111 -1137.243
75 112 122.5206
75 113 -1102.686
75 115 -113.3159
75 116 -1019.843
75 117 -1137.243
75 118 1102.686
75 119 -122.5206
76 49 1.455192e-11
76 50 -6055.382
76 51 605.5382
76 52 1218343.0
76 53 -16955.07
76 54 -169550.7
76 56 -909.4668
76 57 90.94668
76 58 95675.91
76 59 28011.58
76 60 280115.8
76 61 4.547474e-13
76 62 -909.4668
76 63 -1000.414
76 64 401256.8
76 65 28011.58
76 66 -25465.07
76 73 4.547474e-13
76 74 -631.4791
76 75 3363.586
76 76 8042107.0
76 77 -160480.7
76 78 -488581.1
76 82 -40722.57
76 87 -509.0322
76 88 101806.4
76 99 -719.8802
76 100 43192.81
76 101 -100783.2
76 103 1.455192e-11
76 104 6055.382
76 105 -605.5382
76 106 1218343.0
76 107 -16955.07
76 108 -169550.7
76 109 9.094947e-13
76 110 1225.206
76 111 -122.5206
76 112 168098.3
76 113 -30875.2
76 114 -308752.0
76 116 1225.206
76 117 -1102.686
76 118 442544.5
76 119 -30875.2
76 120 -34305.78
77 49 6055.382
77 50 -1.455192e-11
77 51 -605.5382
77 52 -16955.07
77 53 1218343.0
77 54 -169550.7
77 55 909.4668
77 56 -4.547474e-13
77 57 1000.414
77 58 28011.58
77 59 401256.8
77 60 -25465.07
77 61 909.4668
77 63 -90.94668
77 64 28011.58
77 65 95675.91
77 66 280115.8
77 73 631.4791
77 74 -4.547474e-13
77 75 -3363.586
77 76 -160480.7
77 77 8042107.0
77 78 -488581.1
77 81 509.0322
77 83 101806.4
77 89 -40722.57
77 99 719.8802
77 100 -100783.2
77 101 43192.81
77 103 -6055.382
77 104 -1.455192e-11
77 105 605.5382
77 106 -16955.07
77 107 1218343.0
77 108 -169550.7
77 109 -1225.206
77 111 1102.686
77 112 -30875.2
77 113 442544.5
77 114 -34305.78
77 115 -1225.206
77 116 -9.094947e-13
77 117 122.5206
77 118 -30875.2
77 119 168098.3
77 120 -308752.0
78 49 -605.5382
78 50 605.5382
78 52 -169550.7
78 53 -169550.7
78 54 -460209.0
78 55 -90.94668
78 56 -1000.414
78 58 280115.8
78 59 -25465.07
78 60 149152.6
78 61 1000.414
78 62 90.94668
78 64 -25465.07
78 65 280115.8
78 66 149152.6
78 73 -3363.586
78 74 3363.586
78 76 -488581.1
78 77 -488581.1
78 78 3793848.0
78 80 -509.0322
78 84 101806.4
78 85 509.0322
78 90 101806.4
78 97 719.8802
78 98 -719.8802
78 102 143976.0
78 103 605.5382
78 104 -605.5382
78 106 -169550.7
78 107 -169550.7
78 108 -460209.0
78 109 122.5206
78 110 -1102.686
78 112 -308752.0
78 113 -34305.78
78 114 102917.3
78 115 1102.686
78 116 -122.5206
78 118 -34305.78
78 119 -308752.0
78 120 102917.3
79 55 -58.95556
79 56 38.77095
79 57 387.7095
79 58 -1.455192e-11
79 59 -6055.382
79 60 605.5382
79 73 -1328.635
79 79 2390.129
79 80 -1014.629
79 81 -775.4191
79 84 -1228.912
79 91 -1.696774
79 96 -509.0322
79 97 -941.8864
79 98 937.0872
79 102 -719.8802
79 109 -58.95556
79 110 38.77095
79 111 387.7095
79 112 -1.455192e-11
79 113 6055.382
79 114 -605.5382
80 55 38.77095
80 56 -58.95556
80 57 -387.7095
80 58 6055.382
80 59 1.455192e-11
80 60 605.5382
80 74 -1.696774
80 78 -509.0322
80 79 -1014.629
80 80 2390.129
80 81 775.4191
80 84 -1228.912
80 92 -1328.635
80 97 937.0872
80 98 -941.8864
80 102 -719.8802
80 109 38.77095
80 110 -58.95556
80 111 -387.7095
80 112 -6055.382
80 113 1.455192e-11
80 114 -605.5382
81 55 387.7095
81 56 -387.7095
81 57 -3897.28
81 58 -605.5382
81 59 -605.5382
81 75 -1.696774
81 77 509.0322
81 79 -775.4191
81 80 775.4191
81 81 7802.753
81 82 1228.912
81 83 1228.912
81 93 -1.696774
81 94 509.0322
81 99 -4.799201
81 100 719.8802
81 101 719.8802
81 109 387.7095
81 110 -387.7095
81 111 -3897.28
81 112 605.5382
81 113 605.5382
82 55 -1.455192e-11
82 56 -6055.382
82 57 605.5382
82 58 1218343.0
82 59 16955.07
82 60 169550.7
82 76 -40722.57
82 81 1228.912
82 82 5319544.0
82 83 153935.3
82 84 387544.4
82 93 -509.0322
82 94 101806.4
82 99 -719.8802
82 100 43192.81
82 101 100783.2
82 109 -1.455192e-11
82 110 6055.382
82 111 -605.5382
82 112 1218343.0
82 113 16955.07
82 114 169550.7
83 55 6055.382
83 56 1.455192e-11
83 57 605.5382
83 58 16955.07
83 59 1218343.0
83 60 -169550.7
83 75 -509.0322
83 77 101806.4
83 81 1228.912
83 82 153935.3
83 83 5319544.0
83 84 -387544.4
83 95 -40722.57
83 99 -719.8802
83 100 100783.2
83 101 43192.81
83 109 -6055.382
83 110 1.455192e-11
83 111 -605.5382
83 112 16955.07
83 113 1218343.0
83 114 -169550.7
84 55 -605.5382
84 56 -605.5382
84 58 169550.7
84 59 -169550.7
84 60 -460209.0
84 74 509.0322
84 78 101806.4
84 79 -1228.912
84 80 -1228.912
84 82 387544.4
84 83 -387544.4
84 84 1760925.0
84 91 509.0322
84 96 101806.4
84 97 719.8802
84 98 719.8802
84 102 143976.0
84 109 605.5382
84 110 605.5382
84 112 169550.7
84 113 -169550.7
84 114 -460209.0
85 61 -58.95556
85 62 38.77095
85 63 -387.7095
85 64 -1.455192e-11
85 65 -6055.382
85 66 -605.5382
85 73 -1.696774
85 78 509.0322
85 85 2390.129
85 86 -1014.629
85 87 775.4191
85 90 1228.912
85 91 -1328.635
85 97 -941.8864
85 98 937.0872
85 102 719.8802
85 115 -58.95556
85 116 38.77095
85 117 -387.7095
85 118 -1.455192e-11
85 119 6055.382
85 120 605.5382
86 61 38.77095
86 62 -58.95556
86 63 387.7095
86 64 6055.382
86 65 1.455192e-11
86 66 -605.5382
86 74 -1328.635
86 85 -1014.629
86 86 2390.129
86 87 -775.4191
86 90 1228.912
86 92 -1.696774
86 96 509.0322
86 97 937.0872
86 98 -941.8864
86 102 719.8802
86 115 38.77095
86 116 -58.95556
86 117 387.7095
86 118 -6055.382
86 119 1.455192e-11
86 120 605.5382
87 61 -387.7095
87 62 387.7095
87 63 -3897.28
87 64 605.5382
87 65 605.5382
87 75 -1.696774
87 76 -509.0322
87 85 775.4191
87 86 -775.4191
87 87 7802.753
87 88 -1228.912
87 89 -1228.912
87 93 -1.696774
87 95 -509.0322
87 99 -4.799201
87 100 -719.8802
87 101 -719.8802
87 115 -387.7095
87 116 387.7095
87 117 -3897.28
87 118 -605.5382
87 119 -605.5382
88 61 -1.455192e-11
88 62 -6055.382
88 63 -605.5382
88 64 1218343.0
88 65 16955.07
88 66 -169550.7
88 75 509.0322
88 76 101806.4
88 87 -1228.912
88 88 5319544.0
88 89 153935.3
88 90 -387544.4
88 94 -40722.57
88 99 719.8802
88 100 43192.81
88 101 100783.2
88 115 -1.455192e-11
88 116 6055.382
88 117 605.5382
88 118 1218343.0
88 119 16955.07
88 120 -169550.7
89 61 6055.382
89 62 1.455192e-11
89 63 -605.5382
89 64 16955.07
89 65 1218343.0
89 66 169550.7
89 77 -40722.57
89 87 -1228.912
89 88 153935.3
89 89 5319544.0
89 90 387544.4
89 93 509.0322
89 95 101806.4
89 99 719.8802
89 100 100783.2
89 101 43192.81
89 115 -6055.382
89 116 1.455192e-11
89 117 605.5382
89 118 16955.07
89 119 1218343.0
89 120 169550.7
90 61 605.5382
90 62 605.5382
90 64 -169550.7
90 65 169550.7
90 66 -460209.0
90 73 -509.0322
90 78 101806.4
90 85 1228.912
90 86 1228.912
90 88 -387544.4
90 89 387544.4
90 90 1760925.0
90 92 -509.0322
90 96 101806.4
90 97 -719.8802
90 98 -719.8802
90 102 143976.0
90 115 -605.5382
90 116 -605.5382
90 118 -169550.7
90 119 169550.7
90 120 -460209.0
91 55 -11.44596
91 56 92.55842
91 57 84.14402
91 58 4.547474e-13
91 59 -909.4668
91 60 1000.414
91 61 -1021.174
91 62 92.55842
91 63 -925.5842
91 65 -909.4668
91 66 -90.94668
91 67 -58.95556
91 68 -38.77095
91 69 387.7095
91 70 1.455192e-11
91 71 -6055.382
91 72 -605.5382
91 79 -1.696774
91 84 509.0322
91 85 -1328.635
91 91 4360.107
91 92 1033.481
91 93 -1067.137
91 94 4.547474e-13
91 95 631.4791
91 96 3363.586
91 97 -941.8864
91 98 -937.0872
91 102 719.8802
91 109 -15.41561
91 110 -101.9843
91 111 113.3159
91 113 1225.206
91 114 1102.686
91 115 -921.9425
91 116 -101.9843
91 117 1019.843
91 118 9.094947e-13
91 119 1225.206
91 120 122.5206
91 121 -58.95556
91 122 -38.77095
91 123 387.7095
91 124 1.455192e-11
91 125 6055.382
91 126 605.5382
92 55 92.55842
92 56 -1021.174
92 57 -925.5842
92 58 909.4668
92 60 90.94668
92 61 92.55842
92 62 -11.44596
92 63 84.14402
92 64 909.4668
92 65 -4.547474e-13
92 66 -1000.414
92 67 -38.77095
92 68 -58.95556
92 69 387.7095
92 70 6055.382
92 71 -1.455192e-11
92 72 605.5382
92 80 -1328.635
92 86 -1.696774
92 90 -509.0322
92 91 1033.481
92 92 4360.107
92 93 -1067.137
92 94 -631.4791
92 95 -4.547474e-13
92 96 -3363.586
92 97 -937.0872
92 98 -941.8864
92 102 -719.8802
92 109 -101.9843
92 110 -921.9425
92 111 1019.843
92 112 -1225.206
92 113 -9.094947e-13
92 114 -122.5206
92 115 -101.9843
92 116 -15.41561
92 117 113.3159
92 118 -1225.206
92 120 -1102.686
92 121 -38.77095
92 122 -58.95556
92 123 387.7095
92 124 -6055.382
92 125 -1.455192e-11
92 126 -605.5382
93 55 84.14402
93 56 -925.5842
93 57 -844.4717
93 58 -1000.414
93 59 -90.94668
93 61 -925.5842
93 62 84.14402
93 63 -844.4717
93 64 90.94668
93 65 1000.414
93 67 387.7095
93 68 387.7095
93 69 -3897.28
93 70 605.5382
93 71 -605.5382
93 81 -1.696774
93 82 -509.0322
93 87 -1.696774
93 89 509.0322
93 91 -1067.137
93 92 -1067.137
93 93 11766.18
93 94 -3363.586
93 95 3363.586
93 99 -4.799201
93 100 -719.8802
93 101 719.8802
93 109 113.3159
93 110 1019.843
93 111 -1137.243
93 112 -1102.686
93 113 122.5206
93 115 1019.843
93 116 113.3159
93 117 -1137.243
93 118 -122.5206
93 119 1102.686
93 121 387.7095
93 122 387.7095
93 123 -3897.28
93 124 -605.5382
93 125 605.5382
94 55 4.547474e-13
94 56 -909.4668
94 57 1000.414
94 58 401256.8
94 59 28011.58
94 60 25465.07
94 62 -909.4668
94 63 -90.94668
94 64 95675.91
94 65 28011.58
94 66 -280115.8
94 67 1.455192e-11
94 68 -6055.382
94 69 -605.5382
94 70 1218343.0
94 71 -16955.07
94 72 169550.7
94 81 509.0322
94 82 101806.4
94 88 -40722.57
94 91 4.547474e-13
94 92 -631.4791
94 93 -3363.586
94 94 8042107.0
94 95 -160480.7
94 96 488581.1
94 99 719.8802
94 100 43192.81
94 101 -100783.2
94 110 1225.206
94 111 1102.686
94 112 442544.5
94 113 -30875.2
94 114 34305.78
94 115 9.094947e-13
94 116 1225.206
94 117 122.5206
94 118 168098.3
94 119 -30875.2
94 120 308752.0
94 121 1.455192e-11
94 122 6055.382
94 123 605.5382
94 124 1218343.0
94 125 -16955.07
94 126 169550.7
95 55 909.4668
95 57 90.94668
95 58 28011.58
95 59 95675.91
95 60 -280115.8
95 61 909.4668
95 62 -4.547474e-13
95 63 -1000.414
95 64 28011.58
95 65 401256.8
95 66 25465.07
95 67 6055.382
95 68 -1.455192e-11
95 69 605.5382
95 70 -16955.07
95 71 1218343.0
95 72 169550.7
95 83 -40722.57
95 87 -509.0322
95 89 101806.4
95 91 631.4791
95 92 -4.547474e-13
95 93 3363.586
95 94 -160480.7
95 95 8042107.0
95 96 488581.1
95 99 -719.8802
95 100 -100783.2
95 101 43192.81
95 109 -1225.206
95 110 -9.094947e-13
95 111 -122.5206
95 112 -30875.2
95 113 168098.3
95 114 308752.0
95 115 -1225.206
95 117 -1102.686
95 118 -30875.2
95 119 442544.5
95 120 34305.78
95 121 -6055.382
95 122 -1.455192e-11
95 123 -605.5382
95 124 -16955.07
95 125 1218343.0
95 126 169550.7
96 55 -1000.414
96 56 -90.94668
96 58 25465.07
96 59 -280115.8
96 60 149152.6
96 61 90.94668
96 62 1000.414
96 64 -280115.8
96 65 25465.07
96 66 149152.6
96 67 605.5382
96 68 -605.5382
96 70 169550.7
96 71 169550.7
96 72 -460209.0
96 79 -509.0322
96 84 101806.4
96 86 509.0322
96 90 101806.4
96 91 3363.586
96 92 -3363.586
96 94 488581.1
96 95 488581.1
96 96 3793848.0
96 97 -719.8802
96 98 719.8802
96 102 143976.0
96 109 -1102.686
96 110 122.5206
96 112 34305.78
96 113 308752.0
96 114 102917.3
96 115 -122.5206
96 116 1102.686
96 118 308752.0
96 119 34305.78
96 120 102917.3
96 121 -605.5382
96 122 605.5382
96 124 169550.7
96 125 169550.7
96 126 -460209.0
97 73 -941.8864
97 74 -937.0872
97 78 719.8802
97 79 -941.8864
97 80 937.0872
97 84 719.8802
97 85 -941.8864
97 86 937.0872
97 90 -719.8802
97 91 -941.8864
97 92 -937.0872
97 96 -719.8802
97 97 3769.242
97 101 509.0322
97 102 -3.637979e-12
97 127 -1.696774
97 131 509.0322
98 73 -937.0872
98 74 -941.8864
98 78 -719.8802
98 79 937.0872
98 80 -941.8864
98 84 719.8802
98 85 937.0872
98 86 -941.8864
98 90 -719.8802
98 91 -937.0872
98 92 -941.8864
98 96 719.8802
98 98 3769.242
98 100 -509.0322
98 128 -1.696774
98 130 -509.0322
99 75 -4.799201
99 76 -719.8802
99 77 719.8802
99 81 -4.799201
99 82 -719.8802
99 83 -719.8802
99 87 -4.799201
99 88 719.8802
99 89 719.8802
99 93 -4.799201
99 94 719.8802
99 95 -719.8802
99 99 1347.832
99 100 3.637979e-12
99 129 -1328.635
100 75 719.8802
100 76 43192.81
100 77 -100783.2
100 81 719.8802
100 82 43192.81
100 83 100783.2
100 87 -719.8802
100 88 43192.81
100 89 100783.2
100 93 -719.8802
100 94 43192.81
100 95 -100783.2
100 98 -509.0322
100 99 3.637979e-12
100 100 894697.9
100 128 509.0322
100 130 101806.4
101 75 -719.8802
101 76 -100783.2
101 77 43192.81
101 81 719.8802
101 82 100783.2
101 83 43192.81
101 87 -719.8802
101 88 100783.2
101 89 43192.81
101 93 719.8802
101 94 -100783.2
101 95 43192.81
101 97 509.0322
101 101 894697.9
101 127 -509.0322
101 131 101806.4
102 73 -719.8802
102 74 719.8802
102 78 143976.0
102 79 -719.8802
102 80 -719.8802
102 84 143976.0
102 85 719.8802
102 86 719.8802
102 90 143976.0
102 91 719.8802
102 92 -719.8802
102 96 143976.0
102 97 -3.637979e-12
102 102 1192531.0
102 132 -40722.57
103 73 -58.95556
103 74 -38.77095
103 75 -387.7095
103 76 1.455192e-11
103 77 -6055.382
103 78 605.5382
103 103 2731.0
103 104 1208.443
103 105 387.7095
103 106 -1.455192e-11
103 107 -6055.382
103 108 -689.1965
103 109 -1492.292
103 115 -0.7080078
103 120 -169.9219
103 127 -1179.045
103 128 -1169.672
103 132 -1124.813
104 73 -38.77095
104 74 -58.95556
104 75 -387.7095
104 76 6055.382
104 77 -1.455192e-11
104 78 -605.5382
104 103 1208.443
104 104 2731.0
104 105 387.7095
104 106 6055.382
104 107 1.455192e-11
104 108 689.1965
104 110 -0.7080078
104 114 169.9219
104 116 -1492.292
104 127 -1169.672
104 128 -1179.045
104 132 1124.813
105 73 -387.7095
105 74 -387.7095
105 75 -3897.28
105 76 -605.5382
105 77 605.5382
105 103 387.7095
105 104 387.7095
105 105 3912.494
105 106 1220.108
105 107 -1220.108
105 111 -2.920139
105 113 -700.8333
105 117 -2.920139
105 118 700.8333
105 129 -9.37344
105 130 1124.813
105 131 -1124.813
106 73 1.455192e-11
106 74 -6055.382
106 75 605.5382
106 76 1218343.0
106 77 -16955.07
106 78 -169550.7
106 103 -1.455192e-11
106 104 6055.382
106 105 1220.108
106 106 2891556.0
106 107 -163353.3
106 108 -193772.2
106 112 -106.575
106 117 -700.8333
106 118 112133.3
106 129 -1124.813
106 130 53991.01
106 131 -125979.0
107 73 6055.382
107 74 -1.455192e-11
107 75 -605.5382
107 76 -16955.07
107 77 1218343.0
107 78 -169550.7
107 103 -6055.382
107 104 1.455192e-11
107 105 -1220.108
107 106 -163353.3
107 107 2891556.0
107 108 -193772.2
107 111 700.8333
107 113 112133.3
107 119 -106.575
107 129 1124.813
107 130 -125979.0
107 131 53991.01
108 73 -605.5382
108 74 605.5382
108 76 -169550.7
108 77 -169550.7
108 78 -460209.0
108 103 -689.1965
108 104 689.1965
108 106 -193772.2
108 107 -193772.2
108 108 1001564.0
108 110 -169.9219
108 114 27187.5
108 115 169.9219
108 120 27187.5
108 127 1124.813
108 128 -1124.813
108 132 179970.0
109 73 -921.9425
109 74 -101.9843
109 75 -1019.843
109 76 9.094947e-13
109 77 -1225.206
109 78 122.5206
109 79 -58.95556
109 80 38.77095
109 81 387.7095
109 82 -1.455192e-11
109 83 -6055.382
109 84 605.5382
109 91 -15.41561
109 92 -101.9843
109 93 113.3159
109 95 -1225.206
109 96 -1102.686
109 103 -1492.292
109 109 3668.359
109 110 -1004.474
109 111 518.8173
109 112 1.364242e-11
109 113 -8505.794
109 114 -1669.362
109 121 -0.7080078
109 126 -169.9219
109 127 -1179.045
109 128 1169.672
109 132 -1124.813
110 73 -101.9843
110 74 -15.41561
110 75 -113.3159
110 76 1225.206
110 78 -1102.686
110 79 38.77095
110 80 -58.95556
110 81 -387.7095
110 82 6055.382
110 83 1.455192e-11
110 84 605.5382
110 91 -101.9843
110 92 -921.9425
110 93 1019.843
110 94 1225.206
110 95 -9.094947e-13
110 96 122.5206
110 104 -0.7080078
110 108 -169.9219
110 109 -1004.474
110 110 3668.359
110 111 -518.8173
110 112 8505.794
110 113 -1.364242e-11
110 114 -1669.362
110 122 -1492.292
110 127 1169.672
110 128 -1179.045
110 132 -1124.813
111 73 -1019.843
111 74 -113.3159
111 75 -1137.243
111 76 -122.5206
111 77 1102.686
111 79 387.7095
111 80 -387.7095
111 81 -3897.28
111 82 -605.5382
111 83 -605.5382
111 91 113.3159
111 92 1019.843
111 93 -1137.243
111 94 1102.686
111 95 -122.5206
111 105 -2.920139
111 107 700.8333
111 109 518.8173
111 110 -518.8173
111 111 6186.979
111 112 2200.273
111 113 2200.273
111 123 -2.920139
111 124 700.8333
111 129 -9.37344
111 130 1124.813
111 131 1124.813
112 73 9.094947e-13
112 74 -1225.206
112 75 122.5206
112 76 168098.3
112 77 -30875.2
112 78 -308752.0
112 79 -1.455192e-11
112 80 -6055.382
112 81 605.5382
112 82 1218343.0
112 83 16955.07
112 84 169550.7
112 92 -1225.206
112 93 -1102.686
112 94 442544.5
112 95 -30875.2
112 96 34305.78
112 106 -106.575
112 109 1.364242e-11
112 110 8505.794
112 111 2200.273
112 112 4353962.0
112 113 92781.37
112 114 -119880.6
112 123 -700.8333
112 124 112133.3
112 129 -1124.813
112 130 53991.01
112 131 125979.0
113 73 1225.206
113 75 -1102.686
113 76 -30875.2
113 77 442544.5
113 78 -34305.78
113 79 6055.382
113 80 1.455192e-11
113 81 605.5382
113 82 16955.07
113 83 1218343.0
113 84 -169550.7
113 91 1225.206
113 92 -9.094947e-13
113 93 122.5206
113 94 -30875.2
113 95 168098.3
113 96 308752.0
113 105 -700.8333
113 107 112133.3
113 109 -8505.794
113 110 -1.364242e-11
113 111 2200.273
113 112 92781.37
113 113 4353962.0
113 114 119880.6
113 125 -106.575
113 129 -1124.813
113 130 125979.0
113 131 53991.01
114 73 -122.5206
114 74 1102.686
114 76 -308752.0
114 77 -34305.78
114 78 102917.3
114 79 -605.5382
114 80 -605.5382
114 82 169550.7
114 83 -169550.7
114 84 -460209.0
114 91 1102.686
114 92 -122.5206
114 94 34305.78
114 95 308752.0
114 96 102917.3
114 104 169.9219
114 108 27187.5
114 109 -1669.362
114 110 -1669.362
114 112 -119880.6
114 113 119880.6
114 114 2001332.0
114 121 169.9219
114 126 27187.5
114 127 1124.813
114 128 1124.813
114 132 179970.0
115 73 -15.41561
115 74 -101.9843
115 75 -113.3159
115 77 -1225.206
115 78 1102.686
115 85 -58.95556
115 86 38.77095
115 87 -387.7095
115 88 -1.455192e-11
115 89 -6055.382
115 90 -605.5382
115 91 -921.9425
115 92 -101.9843
115 93 1019.843
115 94 9.094947e-13
115 95 -1225.206
115 96 -122.5206
115 103 -0.7080078
115 108 169.9219
115 115 3668.359
115 116 -1004.474
115 117 -518.8173
115 118 1.364242e-11
115 119 -8505.794
115 120 1669.362
115 121 -1492.292
115 127 -1179.045
115 128 1169.672
115 132 1124.813
116 73 -101.9843
116 74 -921.9425
116 75 -1019.843
116 76 1225.206
116 77 -9.094947e-13
116 78 -122.5206
116 85 38.77095
116 86 -58.95556
116 87 387.7095
116 88 6055.382
116 89 1.455192e-11
116 90 -605.5382
116 91 -101.9843
116 92 -15.41561
116 93 113.3159
116 94 1225.206
116 96 1102.686
116 104 -1492.292
116 115 -1004.474
116 116 3668.359
116 117 518.8173
116 118 8505.794
116 119 -1.364242e-11
116 120 1669.362
116 122 -0.7080078
116 126 169.9219
116 127 1169.672
116 128 -1179.045
116 132 1124.813
117 73 -113.3159
117 74 -1019.843
117 75 -1137.243
117 76 -1102.686
117 77 122.5206
117 85 -387.7095
117 86 387.7095
117 87 -3897.28
117 88 605.5382
117 89 605.5382
117 91 1019.843
117 92 113.3159
117 93 -1137.243
117 94 122.5206
117 95 -1102.686
117 105 -2.920139
117 106 -700.8333
117 115 -518.8173
117 116 518.8173
117 117 6186.979
117 118 -2200.273
117 119 -2200.273
117 123 -2.920139
117 125 -700.8333
117 129 -9.37344
117 130 -1124.813
117 131 -1124.813
118 74 -1225.206
118 75 1102.686
118 76 442544.5
118 77 -30875.2
118 78 -34305.78
118 85 -1.455192e-11
118 86 -6055.382
118 87 -605.5382
118 88 1218343.0
118 89 16955.07
118 90 -169550.7
118 91 9.094947e-13
118 92 -1225.206
118 93 -122.5206
118 94 168098.3
118 95 -30875.2
118 96 308752.0
118 105 700.8333
118 106 112133.3
118 115 1.364242e-11
118 116 8505.794
118 117 -2200.273
118 118 4353962.0
118 119 92781.37
118 120 119880.6
118 124 -106.575
118 129 1124.813
118 130 53991.01
118 131 125979.0
119 73 1225.206
119 74 -9.094947e-13
119 75 -122.5206
119 76 -30875.2
119 77 168098.3
119 78 -308752.0
119 85 6055.382
119 86 1.455192e-11
119 87 -605.5382
119 88 16955.07
119 89 1218343.0
119 90 169550.7
119 91 1225.206
119 93 1102.686
119 94 -30875.2
119 95 442544.5
119 96 34305.78
119 107 -106.575
119 115 -8505.794
119 116 -1.364242e-11
119 117 -2200.273
119 118 92781.37
119 119 4353962.0
119 120 -119880.6
119 123 700.8333
119 125 112133.3
119 129 1124.813
119 130 125979.0
119 131 53991.01
120 73 -1102.686
120 74 122.5206
120 76 -34305.78
120 77 -308752.0
120 78 102917.3
120 85 605.5382
120 86 605.5382
120 88 -169550.7
120 89 169550.7
120 90 -460209.0
120 91 122.5206
120 92 -1102.686
120 94 308752.0
120 95 34305.78
120 96 102917.3
120 103 -169.9219
120 108 27187.5
120 115 1669.362
120 116 1669.362
120 118 119880.6
120 119 -119880.6
120 120 2001332.0
120 122 -169.9219
120 126 27187.5
120 127 -1124.813
120 128 -1124.813
120 132 179970.0
121 91 -58.95556
121 92 -38.77095
121 93 387.7095
121 94 1.455192e-11
121 95 -6055.382
121 96 -605.5382
121 109 -0.7080078
121 114 169.9219
121 115 -1492.292
121 121 2731.0
121 122 1208.443
121 123 -387.7095
121 124 -1.455192e-11
121 125 -6055.382
121 126 689.1965
121 127 -1179.045
121 128 -1169.672
121 132 1124.813
122 91 -38.77095
122 92 -58.95556
122 93 387.7095
122 94 6055.382
122 95 -1.455192e-11
122 96 605.5382
122 110 -1492.292
122 116 -0.7080078
122 120 -169.9219
122 121 1208.443
122 122 2731.0
122 123 -387.7095
122 124 6055.382
122 125 1.455192e-11
122 126 -689.1965
122 127 -1169.672
122 128 -1179.045
122 132 -1124.813
123 91 387.7095
123 92 387.7095
123 93 -3897.28
123 94 605.5382
123 95 -605.5382
123 111 -2.920139
123 112 -700.8333
123 117 -2.920139
123 119 700.8333
123 121 -387.7095
123 122 -387.7095
123 123 3912.494
123 124 -1220.108
123 125 1220.108
123 129 -9.37344
123 130 -1124.813
123 131 1124.813
124 91 1.455192e-11
124 92 -6055.382
124 93 -605.5382
124 94 1218343.0
124 95 -16955.07
124 96 169550.7
124 111 700.8333
124 112 112133.3
124 118 -106.575
124 121 -1.455192e-11
124 122 6055.382
124 123 -1220.108
124 124 2891556.0
124 125 -163353.3
124 126 193772.2
124 129 1124.813
124 130 53991.01
124 131 -125979.0
125 91 6055.382
125 92 -1.455192e-11
125 93 605.5382
125 94 -16955.07
125 95 1218343.0
125 96 169550.7
125 113 -106.575
125 117 -700.8333
125 119 112133.3
125 121 -6055.382
125 122 1.455192e-11
125 123 1220.108
125 124 -163353.3
125 125 2891556.0
125 126 193772.2
125 129 -1124.813
125 130 -125979.0
125 131 53991.01
126 91 605.5382
126 92 -605.5382
126 94 169550.7
126 95 169550.7
126 96 -460209.0
126 109 -169.9219
126 114 27187.5
126 116 169.9219
126 120 27187.5
126 121 689.1965
126 122 -689.1965
126 124 193772.2
126 125 193772.2
126 126 1001564.0
126 127 -1124.813
126 128 1124.813
126 132 179970.0
127 97 -1.696774
127 101 -509.0322
127 103 -1179.045
127 104 -1169.672
127 108 1124.813
127 109 -1179.045
127 110 1169.672
127 114 1124.813
127 115 -1179.045
127 116 1169.672
127 120 -1124.813
127 121 -1179.045
127 122 -1169.672
127 126 -1124.813
127 127 4717.878
127 131 -509.0322
127 132 -7.275958e-12
128 98 -1.696774
128 100 509.0322
128 103 -1169.672
128 104 -1179.045
128 108 -1124.813
128 109 1169.672
128 110 -1179.045
128 114 1124.813
128 115 1169.672
128 116 -1179.045
128 120 -1124.813
128 121 -1169.672
128 122 -1179.045
128 126 1124.813
128 128 4717.878
128 130 509.0322
129 99 -1328.635
129 105 -9.37344
129 106 -1124.813
129 107 1124.813
129 111 -9.37344
129 112 -1124.813
129 113 -1124.813
129 117 -9.37344
129 118 1124.813
129 119 1124.813
129 123 -9.37344
129 124 1124.813
129 125 -1124.813
129 129 1366.129
129 130 7.275958e-12
130 98 -509.0322
130 100 101806.4
130 105 1124.813
130 106 53991.01
130 107 -125979.0
130 111 1124.813
130 112 53991.01
130 113 125979.0
130 117 -1124.813
130 118 53991.01
130 119 125979.0
130 123 -1124.813
130 124 53991.01
130 125 -125979.0
130 128 509.0322
130 129 7.275958e-12
130 130 1067469.0
131 97 509.0322
131 101 101806.4
131 105 -1124.813
131 106 -125979.0
131 107 53991.01
131 111 1124.813
131 112 125979.0
131 113 53991.01
131 117 -1124.813
131 118 125979.0
131 119 53991.01
131 123 1124.813
131 124 -125979.0
131 125 53991.01
131 127 -509.0322
131 131 1067469.0
132 102 -40722.57
132 103 -1124.813
132 104 1124.813
132 108 179970.0
132 109 -1124.813
132 110 -1124.813
132 114 179970.0
132 115 1124.813
132 116 1124.813
132 120 179970.0
132 121 1124.813
132 122 -1124.813
132 126 179970.0
132 127 -7.275958e-12
132 132 1480483.0
