%%MatrixMarket matrix coordinate real general
% migrated from Universal blas/matrices/bcsstk01.hpp (universal#1210)
48 48 400
1 1 2832269.0
1 5 1000000.0
1 6 2083333.0
1 7 -3333.333
1 11 1000000.0
1 19 -2800000.0
1 25 -28935.19
1 30 2083333.0
2 2 1635448.0
2 4 -2000000.0
2 6 5555556.0
2 8 -6666.667
2 10 -2000000.0
2 20 -30864.2
2 24 5555556.0
2 26 -1597917.0
3 3 1724367.0
3 4 -2083333.0
3 5 -2777778.0
3 9 -1680000.0
3 21 -15432.1
3 23 -2777778.0
3 27 -28935.19
3 28 -2083333.0
4 2 -2000000.0
4 3 -2083333.0
4 4 1003333000.0
4 8 2000000.0
4 10 400000000.0
4 22 -3333333.0
4 27 2083333.0
4 28 100000000.0
5 1 1000000.0
5 3 -2777778.0
5 5 1067500000.0
5 7 -1000000.0
5 11 200000000.0
5 21 2777778.0
5 23 333333300.0
5 29 -833333.3
6 1 2083333.0
6 2 5555556.0
6 6 1535333000.0
6 12 -2000000.0
6 20 -5555556.0
6 24 666666700.0
6 25 -2083333.0
6 30 100000000.0
7 1 -3333.333
7 5 -1000000.0
7 7 2832269.0
7 11 -1000000.0
7 12 2083333.0
7 13 -2800000.0
7 31 -28935.19
7 36 2083333.0
8 2 -6666.667
8 4 2000000.0
8 8 1635448.0
8 10 2000000.0
8 12 5555556.0
8 14 -30864.2
8 18 5555556.0
8 32 -1597917.0
9 3 -1680000.0
9 9 1724367.0
9 10 -2083333.0
9 11 -2777778.0
9 15 -15432.1
9 17 -2777778.0
9 33 -28935.19
9 34 -2083333.0
10 2 -2000000.0
10 4 400000000.0
10 8 2000000.0
10 9 -2083333.0
10 10 1003333000.0
10 16 -3333333.0
10 33 2083333.0
10 34 100000000.0
11 1 1000000.0
11 5 200000000.0
11 7 -1000000.0
11 9 -2777778.0
11 11 1067500000.0
11 15 2777778.0
11 17 333333300.0
11 35 -833333.3
12 6 -2000000.0
12 7 2083333.0
12 8 5555556.0
12 12 1535333000.0
12 14 -5555556.0
12 18 666666700.0
12 31 -2083333.0
12 36 100000000.0
13 7 -2800000.0
13 13 2836099.0
13 17 -2149285.0
13 18 2359162.0
13 19 -3333.333
13 23 -1000000.0
13 37 -28935.19
13 42 2083333.0
13 43 -3830.951
13 47 -1149285.0
13 48 275828.5
14 8 -30864.2
14 12 -5555556.0
14 14 1767411.0
14 15 517922.1
14 16 4298571.0
14 18 -5555556.0
14 20 -6666.667
14 22 2000000.0
14 38 -1597917.0
14 44 -131963.2
14 45 -517922.1
14 46 2298571.0
15 9 -15432.1
15 11 2777778.0
15 14 517922.1
15 15 3890038.0
15 16 -2634990.0
15 17 2777778.0
15 21 -1680000.0
15 39 -28935.19
15 40 -2083333.0
15 44 -517922.1
15 45 -2165671.0
15 46 -551656.9
16 10 -3333333.0
16 14 4298571.0
16 15 -2634990.0
16 16 1975721000.0
16 20 -2000000.0
16 22 400000000.0
16 39 2083333.0
16 40 100000000.0
16 44 -2298571.0
16 45 551656.9
16 46 486193700.0
17 9 -2777778.0
17 11 333333300.0
17 13 -2149285.0
17 15 2777778.0
17 17 1527347000.0
17 18 -109779700.0
17 19 1000000.0
17 23 200000000.0
17 41 -833333.3
17 43 1149285.0
17 47 229724700.0
17 48 -55717350.0
18 8 5555556.0
18 12 666666700.0
18 13 2359162.0
18 14 -5555556.0
18 17 -109779700.0
18 18 1564111000.0
18 24 -2000000.0
18 37 -2083333.0
18 42 100000000.0
18 43 -275828.5
18 47 -55717350.0
18 48 10941200.0
19 1 -2800000.0
19 13 -3333.333
19 17 1000000.0
19 19 2832269.0
19 23 1000000.0
19 24 2083333.0
19 43 -28935.19
19 48 2083333.0
20 2 -30864.2
20 6 -5555556.0
20 14 -6666.667
20 16 -2000000.0
20 20 1635448.0
20 22 -2000000.0
20 24 -5555556.0
20 44 -1597917.0
21 3 -15432.1
21 5 2777778.0
21 15 -1680000.0
21 21 1724367.0
21 22 -2083333.0
21 23 2777778.0
21 45 -28935.19
21 46 -2083333.0
22 4 -3333333.0
22 14 2000000.0
22 16 400000000.0
22 20 -2000000.0
22 21 -2083333.0
22 22 1003333000.0
22 45 2083333.0
22 46 100000000.0
23 3 -2777778.0
23 5 333333300.0
23 13 -1000000.0
23 17 200000000.0
23 19 1000000.0
23 21 2777778.0
23 23 1067500000.0
23 47 -833333.3
24 2 5555556.0
24 6 666666700.0
24 18 -2000000.0
24 19 2083333.0
24 20 -5555556.0
24 24 1535333000.0
24 43 -2083333.0
24 48 100000000.0
25 1 -28935.19
25 6 -2083333.0
25 25 60879.63
25 29 1250000.0
25 30 416666.7
25 31 -4166.667
25 35 1250000.0
26 2 -1597917.0
26 26 3372917.0
26 28 -2500000.0
26 32 -8333.333
26 34 -2500000.0
27 3 -28935.19
27 4 2083333.0
27 27 2411713.0
27 28 -416666.7
27 33 -2355000.0
28 3 -2083333.0
28 4 100000000.0
28 26 -2500000.0
28 27 -416666.7
28 28 1500000000.0
28 32 2500000.0
28 34 500000000.0
29 5 -833333.3
29 25 1250000.0
29 29 501833300.0
29 31 -1250000.0
29 35 250000000.0
30 1 2083333.0
30 6 100000000.0
30 25 416666.7
30 30 502500000.0
30 36 -2500000.0
31 7 -28935.19
31 12 -2083333.0
31 25 -4166.667
31 29 -1250000.0
31 31 3985880.0
31 35 -1250000.0
31 36 416666.7
31 37 -3925000.0
32 8 -1597917.0
32 26 -8333.333
32 28 2500000.0
32 32 3411497.0
32 34 2500000.0
32 36 6944444.0
32 38 -38580.25
32 42 6944444.0
33 9 -28935.19
33 10 2083333.0
33 27 -2355000.0
33 33 2431003.0
33 34 -416666.7
33 35 -3472222.0
33 39 -19290.12
33 41 -3472222.0
34 9 -2083333.0
34 10 100000000.0
34 26 -2500000.0
34 28 500000000.0
34 32 2500000.0
34 33 -416666.7
34 34 1504167000.0
34 40 -4166667.0
35 11 -833333.3
35 25 1250000.0
35 29 250000000.0
35 31 -1250000.0
35 33 -3472222.0
35 35 1335167000.0
35 39 3472222.0
35 41 416666700.0
36 7 2083333.0
36 12 100000000.0
36 30 -2500000.0
36 31 416666.7
36 32 6944444.0
36 36 2169167000.0
36 38 -6944444.0
36 42 833333300.0
37 13 -28935.19
37 18 -2083333.0
37 31 -3925000.0
37 37 3985880.0
37 41 -1250000.0
37 42 416666.7
37 43 -4166.667
37 47 -1250000.0
38 14 -1597917.0
38 32 -38580.25
38 36 -6944444.0
38 38 3411497.0
38 40 2500000.0
38 42 -6944444.0
38 44 -8333.333
38 46 2500000.0
39 15 -28935.19
39 16 2083333.0
39 33 -19290.12
39 35 3472222.0
39 39 2431003.0
39 40 -416666.7
39 41 3472222.0
39 45 -2355000.0
40 15 -2083333.0
40 16 100000000.0
40 34 -4166667.0
40 38 2500000.0
40 39 -416666.7
40 40 1504167000.0
40 44 -2500000.0
40 46 500000000.0
41 17 -833333.3
41 33 -3472222.0
41 35 416666700.0
41 37 -1250000.0
41 39 3472222.0
41 41 1335167000.0
41 43 1250000.0
41 47 250000000.0
42 13 2083333.0
42 18 100000000.0
42 32 6944444.0
42 36 833333300.0
42 37 416666.7
42 38 -6944444.0
42 42 2169167000.0
42 48 -2500000.0
43 13 -3830.951
43 17 1149285.0
43 18 -275828.5
43 19 -28935.19
43 24 -2083333.0
43 37 -4166.667
43 41 1250000.0
43 43 64710.58
43 47 2399285.0
43 48 140838.2
44 14 -131963.2
44 15 -517922.1
44 16 -2298571.0
44 20 -1597917.0
44 38 -8333.333
44 40 -2500000.0
44 44 3504880.0
44 45 517922.1
44 46 -4798571.0
45 14 -517922.1
45 15 -2165671.0
45 16 551656.9
45 21 -28935.19
45 22 2083333.0
45 39 -2355000.0
45 44 517922.1
45 45 4577384.0
45 46 134990.3
46 14 2298571.0
46 15 -551656.9
46 16 486193700.0
46 21 -2083333.0
46 22 100000000.0
46 38 2500000.0
46 40 500000000.0
46 44 -4798571.0
46 45 134990.3
46 46 2472387000.0
47 13 -1149285.0
47 17 229724700.0
47 18 -55717350.0
47 23 -833333.3
47 37 -1250000.0
47 41 250000000.0
47 43 2399285.0
47 47 961679800.0
47 48 -109779700.0
48 13 275828.5
48 17 -55717350.0
48 18 10941200.0
48 19 2083333.0
48 24 100000000.0
48 42 -2500000.0
48 43 140838.2
48 47 -109779700.0
48 48 531278100.0
