%%MatrixMarket matrix coordinate real general
% migrated from Universal blas/matrices/fs_183_3.hpp (universal#1210)
183 183 1069
1 1 0.008009409
1 2 -0.007347439
1 42 0.02367922
1 43 11.82166
1 44 -0.0004308673
1 49 2.918927
1 50 1.459464
1 56 0.4524337
1 57 3.794605
1 59 0.5400015
1 60 0.5400015
1 61 0.4524337
1 62 0.9778406
1 64 0.5400015
1 65 0.9778406
1 68 0.4524337
1 70 0.4524337
1 71 0.4524337
1 73 0.4524337
1 74 0.4932987
1 76 0.9778406
1 78 0.4932987
1 80 0.5254069
1 81 0.5254069
1 82 0.5254069
1 84 0.9778406
1 87 0.4524337
1 90 0.4524337
1 91 0.5254069
1 92 0.5254069
1 93 0.5254069
1 94 0.5254069
1 96 0.9778406
1 99 0.9778406
1 103 0.4524337
1 105 0.4524337
1 107 0.4524337
1 109 0.4524337
1 112 0.4524337
1 114 0.4524337
1 115 0.4524337
1 116 0.4524337
1 118 0.4524337
1 122 0.4524337
1 123 0.4524337
1 125 0.4524337
1 126 0.4524337
1 127 0.4524337
1 128 0.4524337
1 129 4.524337
1 130 0.4524337
1 131 0.4524337
1 132 0.4524337
1 133 0.4524337
1 136 -8.896218
1 137 17.51356
1 140 27.68766
2 1 -0.006435119
2 2 0.008958054
2 42 -0.02363824
2 43 -10.54181
2 44 -8.214359e-06
2 45 -5.112746e-07
2 46 -0.09283119
2 49 -2.918927
2 50 -1.459464
2 51 1.264685
2 56 -0.4524337
2 57 -2.024046
2 58 -0.0004454893
2 59 -0.5400015
2 60 -0.5400015
2 61 -0.4524337
2 62 -0.4846134
2 63 -0.0004454893
2 64 -0.5400015
2 65 -0.4846134
2 66 -0.0004454893
2 68 -0.4524337
2 70 -0.4524337
2 71 -0.4524337
2 73 -0.4524337
2 74 -0.4524337
2 76 -0.4846134
2 77 -0.0004454893
2 78 -0.4524337
2 80 -0.4524337
2 81 -0.4524337
2 82 -0.4524337
2 84 -0.4846134
2 85 -0.0004454893
2 87 -0.4524337
2 90 -0.4524337
2 91 -0.4524337
2 92 -0.4524337
2 93 -0.4524337
2 94 -0.4524337
2 96 -0.4846134
2 97 -0.0004454893
2 99 -0.4846134
2 100 -0.0004454893
2 103 -0.4524337
2 105 -0.4524337
2 107 -0.4524337
2 108 -0.0004454893
2 109 0.04079352
2 110 0.4932272
2 112 -0.4524337
2 114 -0.4524337
2 115 -0.4524337
2 116 -0.4524337
2 118 0.04079352
2 119 0.4932272
2 121 -0.0004460503
2 122 -0.4524337
2 123 -0.4524337
2 125 -0.4524337
2 126 -0.4524337
2 127 -0.4524337
2 128 -0.4524337
2 129 -4.524337
2 130 -0.4524337
2 131 -0.4524337
2 132 -0.4524337
2 133 -0.4524337
2 136 8.896218
2 137 13.63338
2 140 -52.18266
2 141 -0.1163909
3 3 0.001591315
3 49 0.006341085
3 137 1.316074
4 4 0.001570289
4 20 -7.332506e-05
4 21 -2.920504e-05
4 22 -1.178864e-05
4 23 -1.095964e-05
4 24 -1.480017e-05
4 25 -2.475614e-05
4 26 -2.155182e-07
4 72 -0.0006174322
4 106 -0.0003087161
4 124 -0.001484843
4 134 -3.654478e-05
4 135 -3.654478e-05
4 137 4.8052
4 140 -0.0001816299
5 5 0.001569932
5 137 0.7824548
6 6 0.001570289
6 22 -2.58832e-07
6 137 1.038878
7 7 0.001572812
7 23 -2.225946e-07
7 24 -4.439936e-07
7 137 1.689835
8 8 0.001572907
8 25 -1.178864e-06
8 134 -1.178864e-06
8 137 1.165961
9 9 0.001572929
9 135 -1.178864e-06
9 137 0.6003471
10 10 0.001574365
10 137 0.9468662
11 11 0.001573842
11 137 1.447327
12 12 0.001580536
12 23 -2.095011e-06
12 42 8.845733e-07
12 137 4.212603
13 13 0.001605723
13 25 -1.178864e-05
13 42 1.332121e-06
13 134 -1.178864e-05
13 135 -1.178864e-05
13 137 3.26094
14 14 0.00157075
14 137 0.3671033
15 15 0.001577887
15 137 2.082041
16 16 0.001587346
16 137 1.330315
17 17 0.001599792
17 137 2.818472
18 18 0.001588591
18 137 1.229842
19 19 0.001579256
19 137 0.7545762
20 1 -1.665341e-06
20 12 -6.544854e-07
20 13 -2.029093e-06
20 20 0.001643247
20 31 -1.36906e-06
20 42 -1.550634e-06
20 49 -2.935664e-06
20 106 -0.0003087161
20 126 -0.4524337
20 127 -0.4524337
20 131 -0.4524337
20 132 -0.4524337
20 137 2.112509
20 140 0.00018163
20 144 -9360.0
20 159 -33.0
20 161 -3200.0
20 163 -4472.0
20 166 -2236.0
21 1 -3.012354e-06
21 13 -2.029093e-06
21 21 0.001619529
21 23 -2.095011e-06
21 25 -1.178864e-05
21 32 -4.10718e-06
21 42 -6.660604e-07
21 72 -0.0006174322
21 128 -0.9048674
21 130 -0.4524337
21 133 -0.4524337
21 134 -1.178864e-05
21 135 -1.178864e-05
21 137 1.922526
21 140 5.890172e-05
21 159 -192.4
21 160 -1200.0
21 164 -1100.0
21 166 -2236.0
22 1 -1.024211e-06
22 22 0.001606603
22 124 -0.001484843
22 127 -0.4524337
22 130 -0.4524337
22 137 0.582304
22 162 -192.4
23 1 -5.180538e-07
23 23 0.001601646
23 129 -4.524337
23 137 0.1016759
23 161 -192.4
24 1 -2.086643e-07
24 24 0.001603391
24 132 -0.4524337
24 137 0.05848629
24 167 -192.4
25 25 0.001608334
25 137 0.001372076
25 169 -192.4
26 1 -5.306249e-07
26 26 0.001573623
26 126 -0.4524337
26 133 -0.4524337
26 137 0.02142023
26 164 -192.4
26 168 -33.3
26 177 -3200.0
27 1 -6.747634e-07
27 27 0.001582558
27 131 -0.4524337
27 137 0.09914658
27 160 -1092.0
28 28 0.001720578
28 137 0.00689601
28 171 -192.4
29 29 0.001588923
29 137 0.02399629
29 170 -192.4
30 30 0.001582064
30 176 -192.4
31 31 0.001571291
31 49 -2.935665e-06
31 137 0.0001441736
32 32 0.001574029
32 137 0.432478
33 33 0.001615677
33 137 0.6053296
34 34 0.001647071
34 137 1.312914
35 35 0.001681936
35 137 0.5952326
36 36 0.001607263
36 137 0.6070018
37 37 0.001643316
37 137 0.7910478
38 38 0.001609078
38 137 0.2443576
39 39 0.001580931
39 137 0.310597
40 40 0.001632208
40 137 0.310968
41 41 0.001586102
41 137 0.08604497
41 179 -2236.0
42 1 0.006319514
42 2 1.26201e-05
42 12 6.544854e-07
42 13 4.058186e-06
42 42 0.02563552
42 43 0.0007795061
42 136 -80685.12
42 137 0.03098561
43 1 3.942855e-05
43 2 6.504106e-06
43 13 -2.029093e-06
43 20 -3.00002e-05
43 21 -2.920504e-05
43 22 -1.152981e-05
43 23 -1.073704e-05
43 24 -1.435617e-05
43 25 -2.357728e-05
43 31 -1.36906e-06
43 32 -4.10718e-06
43 42 -7.522083e-07
43 43 13.10399
43 46 -0.09283119
43 47 -1.006222e-06
43 49 8.348309e-06
43 61 -0.4524338
43 69 -4472.0
43 103 -0.4524337
43 105 -0.4524337
43 112 -0.4524337
43 114 -0.4524337
43 115 -0.4524337
43 122 -0.4524337
43 123 -0.4524337
43 125 -0.4524337
43 126 -0.4524337
43 127 -0.4524337
43 128 -0.4524337
43 129 -9.048674
43 130 -0.4524337
43 131 -0.4524337
43 132 -0.4524337
43 133 -0.4524337
43 134 -3.536591e-05
43 135 -3.536591e-05
43 136 0.0002249464
43 137 -2.575937
43 138 -7364985.0
43 140 -0.0001816318
43 144 -9360.0
43 159 -192.4
43 160 -1092.0
43 161 -192.4
43 162 -192.4
43 163 -2236.0
43 164 -192.4
43 165 -192.4
43 166 -2236.0
43 167 -192.4
43 169 -192.4
43 170 -192.4
43 171 -192.4
43 172 -192.4
43 173 -192.4
43 174 -192.4
43 176 -192.4
43 179 -2236.0
43 182 -2236.0
44 1 -1.49352e-05
44 44 0.002009004
44 137 -17.2354
45 2 -1.36906e-05
45 20 -4.587575e-10
45 21 -2.351132e-10
45 45 0.001625533
45 47 -2.353826e-10
45 137 -13.9053
45 140 -0.0002405335
46 2 -6.504106e-06
46 43 -1.27985
46 46 0.09440112
47 43 -3.180441e-05
47 47 0.001607096
47 137 3.684182e-06
47 140 1.868797e-09
48 20 -4.332486e-05
48 48 0.001569929
48 137 0.08563205
49 1 8.891508e-06
49 3 2.35625e-08
49 43 5.77948e-06
49 49 2.926857
49 56 1.111438e-07
49 57 1.155896e-07
49 59 1.111438e-07
49 60 1.111438e-07
49 61 1.111438e-07
49 62 1.111438e-07
49 64 1.111438e-07
49 65 1.111438e-07
49 68 1.111438e-07
49 70 1.111438e-07
49 71 1.111438e-07
49 73 1.111438e-07
49 74 1.111438e-07
49 76 1.111438e-07
49 78 1.111438e-07
49 80 1.111438e-07
49 81 1.111438e-07
49 82 1.111438e-07
49 87 1.111439e-07
49 90 1.111439e-07
49 91 1.111438e-07
49 92 1.111438e-07
49 93 1.111438e-07
49 94 1.111438e-07
49 96 1.111439e-07
49 99 1.111438e-07
49 158 -2652000.0
50 1 1.123131e-06
50 50 1.461034
50 142 -5200.0
51 1 -1.123131e-06
51 2 1.295701e-06
51 50 -1.459464
51 51 1.266255
52 2 -1.295701e-06
52 51 -1.264685
52 52 0.001569922
52 143 -319889.0
53 2 -1.295701e-06
53 45 -3e-05
53 51 -1.264685
53 53 0.001569922
53 75 -3e-05
53 79 -3e-05
53 83 -3e-05
53 86 -3e-05
53 89 -3e-05
53 95 -3e-05
53 98 -3e-05
53 101 -3e-05
53 102 -3e-05
53 111 -3e-05
53 120 -3e-05
53 141 -6e-05
54 47 -3e-05
54 54 0.001569922
55 43 -5.77948e-06
55 49 -8.355153e-06
55 55 0.001569922
56 1 2.374251e-06
56 6 -3.666117e-07
56 22 -1.152981e-05
56 27 -8.404896e-06
56 28 -0.0001435617
56 49 2.147145e-07
56 56 0.4540038
56 62 -0.9778407
56 137 -1.038878
56 160 -1200.0
56 177 -3200.0
57 1 3.633981e-06
57 2 1.956759e-06
57 21 -2.040245e-05
57 26 -2.863322e-06
57 27 -8.404896e-06
57 29 -1.178864e-05
57 30 -1.178864e-05
57 49 3.633983e-08
57 57 5.566735
57 58 -0.0004454893
57 67 -0.002969687
57 88 -0.0001435617
57 137 -2.355004
57 140 -5.890172e-05
58 2 -1.956759e-06
58 57 -1.770559
58 58 0.002020411
59 1 8.769535e-07
59 8 -2.558871e-06
59 49 5.959623e-08
59 59 0.5415716
59 96 -0.9778407
59 134 -3.536591e-05
59 137 -0.9993955
60 1 1.571252e-07
60 8 -4.264785e-07
60 25 -2.357728e-05
60 49 1.071558e-08
60 60 0.5415716
60 84 -0.9778406
60 137 -0.1665659
61 1 8.486504e-08
61 27 -4.23164e-06
61 49 6.843954e-09
61 61 0.4540038
61 137 -0.09914658
62 1 5.363906e-07
62 2 3.122274e-07
62 22 -2.4892e-05
62 28 -0.0001435617
62 49 2.001454e-08
62 62 1.472638
62 63 -0.0004454893
62 88 -0.0001435617
62 137 -0.582304
63 2 -3.122274e-07
63 62 -0.4932272
63 63 0.002020411
64 1 9.923433e-07
64 7 -1.521521e-06
64 23 -1.073704e-05
64 29 -1.178864e-05
64 49 6.931374e-08
64 64 0.5415716
64 65 -0.9778407
64 137 -0.8894822
64 161 -3200.0
65 1 7.481795e-08
65 2 4.355074e-08
65 23 -1.8669e-05
65 29 -1.178864e-07
65 49 2.791714e-09
65 65 1.472638
65 66 -0.0004454893
65 137 -0.1016759
66 2 -4.355074e-08
66 65 -0.4932272
66 66 0.002020411
67 1 -9.765371e-07
67 49 -6.843955e-09
67 61 -0.4524338
67 67 0.003054765
67 115 -0.4524337
68 1 3.592894e-06
68 12 -9.959484e-06
68 49 2.897496e-07
68 68 0.4540038
68 137 -4.212603
69 12 -6.544854e-07
69 13 -2.029093e-06
69 42 -1.550634e-06
69 69 2236.002
70 1 7.532747e-07
70 7 -1.36906e-06
70 24 -1.435617e-05
70 30 -1.178864e-05
70 49 6.264264e-08
70 70 0.4540038
70 76 -0.9778407
70 137 -0.8003531
71 1 1.855668e-08
71 26 -6.222999e-07
71 49 1.496507e-09
71 71 0.4540038
71 137 -0.02142023
72 1 -5.574445e-06
72 72 0.002187354
72 103 -0.4524337
72 112 -0.4524337
72 114 -0.4524337
72 122 -0.4524337
72 165 -192.4
73 1 2.781016e-06
73 13 -3.174324e-05
73 49 2.242755e-07
73 73 0.4540038
73 137 -3.26094
74 1 1.375822e-07
74 9 -7.463374e-07
74 49 1.073053e-08
74 74 0.4948687
74 99 -0.9778407
74 135 -3.536591e-05
74 137 -0.1490223
75 1 -1.265027e-08
75 74 -0.04086498
75 75 0.001599922
76 1 4.372503e-08
76 2 2.545188e-08
76 24 -1.8669e-05
76 30 -3.536591e-07
76 49 1.631531e-09
76 76 1.472638
76 77 -0.0004454893
76 137 -0.05848629
77 2 -2.545188e-08
77 76 -0.4932272
77 77 0.002020411
78 1 3.852102e-07
78 9 -2.260336e-06
78 49 2.849188e-08
78 78 0.4948687
78 137 -0.4513247
79 1 -3.19109e-08
79 78 -0.04086498
79 79 0.001599922
80 1 8.398258e-08
80 10 -4.60502e-07
80 49 5.832124e-09
80 80 0.5269769
80 137 -0.09813459
81 1 4.753349e-07
81 10 -2.61366e-06
81 49 3.300937e-08
81 81 0.5269769
81 137 -0.5569801
82 1 2.491197e-07
82 10 -1.36906e-06
82 49 1.729998e-08
82 82 0.5269769
82 137 -0.2917515
83 1 -1.166425e-08
83 80 -0.07297318
83 83 0.001599922
84 1 1.46537e-09
84 2 8.529765e-10
84 25 -1.8669e-06
84 84 1.472638
84 85 -0.0004454893
84 137 -0.001372076
85 2 -8.529765e-10
85 84 -0.4932272
85 85 0.002020411
86 1 -6.601874e-08
86 81 -0.07297318
86 86 0.001599922
87 1 2.076159e-08
87 29 -7.094219e-06
87 49 1.674321e-09
87 87 0.4540038
87 137 -0.02399629
88 88 0.001713484
88 172 -192.4
88 173 -192.4
89 1 -3.459996e-08
89 82 -0.07297318
89 89 0.001599922
90 1 6.167524e-09
90 28 -7.094219e-06
90 49 4.97381e-10
90 90 0.4540038
90 137 -0.00689601
91 1 1.452798e-07
91 11 -4.60502e-07
91 49 1.008887e-08
91 91 0.5269769
91 137 -0.1700035
92 1 7.082195e-08
92 11 -2.24028e-07
92 49 4.918191e-09
92 92 0.5269769
92 137 -0.0827044
93 1 4.313546e-07
93 11 -1.36906e-06
93 49 2.995518e-08
93 93 0.5269769
93 137 -0.5054158
94 1 5.88108e-07
94 11 -1.8669e-06
94 49 4.084083e-08
94 94 0.5269769
94 137 -0.6892033
95 1 -2.017775e-08
95 91 -0.07297318
95 95 0.001599922
96 1 1.132438e-08
96 2 6.591801e-09
96 49 4.225514e-10
96 96 1.472638
96 97 -0.0004454893
96 134 -1.8669e-05
96 137 -0.01503356
97 2 -6.591801e-09
97 96 -0.4932272
97 97 0.002020411
98 1 -9.836382e-09
98 92 -0.07297318
98 98 0.001599922
99 1 1.512459e-08
99 2 8.803869e-09
99 49 5.643504e-10
99 99 1.472638
99 100 -0.0004454893
99 135 -5.974079e-05
99 137 -0.02021617
100 2 -8.803869e-09
100 99 -0.4932272
100 100 0.002020411
101 1 -5.991037e-08
101 93 -0.07297318
101 101 0.001599922
102 1 -8.168166e-08
102 94 -0.07297318
102 102 0.001599922
103 1 1.498475e-06
103 15 -6.720839e-06
103 103 0.4540036
103 137 -1.756722
104 1 -3.033961e-06
104 103 -0.4524337
104 104 0.001594814
104 115 -0.4524337
104 123 -0.4524337
104 137 0.6186132
105 1 5.282234e-07
105 104 -2.4892e-05
105 105 0.4540036
105 137 -0.6186132
106 1 -1.99301e-06
106 105 -0.9048674
106 106 0.001878638
106 114 -0.4524337
106 125 -0.4524337
107 1 2.777259e-07
107 107 0.4540036
107 178 -2236.0
108 2 -6.947844e-08
108 108 0.002020411
108 109 -0.4932272
109 1 5.522645e-08
109 2 6.947844e-08
109 108 -0.0004454893
109 109 0.9472309
109 180 -2236.0
110 1 -5.522645e-08
110 2 6.399939e-08
110 109 -0.4524337
110 110 0.4947972
111 2 -6.399939e-08
111 110 -0.4932272
111 111 0.001599922
112 1 2.403684e-06
112 17 -2.98704e-05
112 112 0.4540036
112 137 -2.818472
113 1 -3.452776e-06
113 112 -0.4524337
113 113 0.001594814
113 122 -0.4524337
113 137 0.7299008
114 1 6.231941e-07
114 113 -2.4892e-05
114 114 0.4540036
114 137 -0.7299008
115 1 8.91672e-07
115 16 -1.36906e-05
115 115 0.4540036
115 137 -1.045247
116 1 2.43389e-07
116 116 0.4540036
116 181 -2236.0
117 117 0.001594814
117 137 0.05035142
117 182 -2236.0
118 1 3.137368e-08
118 2 3.947012e-08
118 118 0.9472309
118 121 -0.0004460503
118 183 -2236.0
119 1 -3.137368e-08
119 2 3.646393e-08
119 118 -0.4524337
119 119 0.4947972
120 2 -3.646393e-08
120 119 -0.4932272
120 120 0.001599922
121 2 -3.947012e-08
121 118 -0.4932272
121 121 0.002020972
122 1 1.049092e-06
122 18 -1.8669e-05
122 122 0.4540036
122 137 -1.229842
123 1 6.438145e-07
123 19 -9.334499e-06
123 123 0.4540036
123 137 -0.7545762
124 1 -6.438145e-07
124 123 -0.4524337
124 124 0.003054765
125 1 3.133691e-07
125 14 -8.276999e-07
125 125 0.4540036
125 137 -0.3671033
126 1 2.654393e-07
126 40 -6.228621e-05
126 126 0.4540036
126 137 -0.310968
127 1 5.164737e-07
127 33 -4.575487e-05
127 127 0.4540036
127 137 -0.6053296
128 1 1.119715e-06
128 34 -7.714951e-05
128 128 0.4540036
128 137 -1.312914
129 1 5.180538e-07
129 36 -3.734078e-05
129 129 4.525907
129 137 -0.6070018
130 1 5.077377e-07
130 35 -0.000112014
130 130 0.4540036
130 137 -0.5952326
131 1 6.747634e-07
131 37 -7.339394e-05
131 131 0.4540036
131 137 -0.7910478
132 1 2.086643e-07
132 38 -3.915645e-05
132 132 0.4540036
132 137 -0.2443576
133 1 2.651857e-07
133 39 -1.100909e-05
133 133 0.4540036
133 137 -0.310597
134 134 0.001636924
134 137 0.01503356
134 174 -192.4
135 135 0.001677996
135 137 0.02021617
135 175 -192.4
136 1 2.089033e-07
136 2 -0.00734531
136 42 -0.0003241237
136 43 4.084733e-06
136 136 80699.25
136 137 4.901699e-06
136 139 -765000000.0
136 140 -0.08321759
137 1 -3.712383e-05
137 2 1.36906e-05
137 3 1.36906e-06
137 4 3.672928e-07
137 5 9.649044e-09
137 6 3.666117e-07
137 7 2.890581e-06
137 8 2.98535e-06
137 9 3.006674e-06
137 10 4.443222e-06
137 11 3.92049e-06
137 12 9.959484e-06
137 13 3.174324e-05
137 14 8.276999e-07
137 15 7.965439e-06
137 16 1.74244e-05
137 17 2.98704e-05
137 18 1.8669e-05
137 19 9.334499e-06
137 20 1.158138e-05
137 21 2.040221e-05
137 22 2.4892e-05
137 23 1.8669e-05
137 24 1.8669e-05
137 25 1.8669e-06
137 26 6.222999e-07
137 27 4.23164e-06
137 28 7.094219e-06
137 29 7.094219e-06
137 31 1.36906e-06
137 32 4.10718e-06
137 33 4.575487e-05
137 34 7.714951e-05
137 35 0.000112014
137 36 3.734078e-05
137 37 7.339394e-05
137 38 3.915645e-05
137 39 1.100909e-05
137 40 6.228621e-05
137 41 1.61798e-05
137 42 8.614789e-08
137 43 -11.82238
137 44 -0.000422653
137 45 -4.117066e-07
137 47 -1.132997e-05
137 48 7.564542e-09
137 104 2.4892e-05
137 113 2.4892e-05
137 117 2.4892e-05
137 134 1.8669e-05
137 135 5.974079e-05
137 136 -0.0001726732
137 137 75.88266
137 139 -161702100.0
138 4 -3.672928e-07
138 20 -1.841835e-05
138 48 -7.564542e-09
138 136 -5.22732e-05
138 137 -7.00349
138 138 7364985.0
139 42 -3.943432e-06
139 139 845851100.0
140 1 1.089549e-05
140 2 -1.109188e-05
140 20 4.587575e-10
140 21 2.351132e-10
140 42 -4.097658e-05
140 45 -9.956799e-08
140 47 2.351272e-10
140 137 -0.006235273
140 140 31.21712
140 141 -0.1163909
141 2 -1.523606e-06
141 140 -3.360176
141 141 0.1179495
142 3 -1.36906e-06
142 137 -1.316074
142 142 5200.002
143 3 -2.35625e-08
143 49 -0.006341085
143 143 319889.0
144 1 -8.891508e-06
144 3 -2.35625e-08
144 49 -2.925273
144 56 -1.111438e-07
144 57 -1.155896e-07
144 59 -1.111438e-07
144 60 -1.111438e-07
144 61 -1.111438e-07
144 62 -1.111438e-07
144 64 -1.111438e-07
144 65 -1.111438e-07
144 68 -1.111438e-07
144 70 -1.111438e-07
144 71 -1.111438e-07
144 73 -1.111438e-07
144 74 -1.111438e-07
144 76 -1.111438e-07
144 78 -1.111438e-07
144 80 -1.111438e-07
144 81 -1.111438e-07
144 82 -1.111438e-07
144 87 -1.111439e-07
144 90 -1.111439e-07
144 91 -1.111438e-07
144 92 -1.111438e-07
144 93 -1.111438e-07
144 94 -1.111438e-07
144 96 -1.111439e-07
144 99 -1.111438e-07
144 144 9360.002
145 45 -2.5e-05
145 145 0.001528623
146 3 -2e-05
146 146 0.001528623
147 2 -2.5e-06
147 147 0.001528623
148 42 -1.5e-05
148 148 0.001528623
149 58 -5e-06
149 149 0.001528623
150 63 -5e-06
150 150 0.001528623
151 66 -5e-06
151 151 0.001528623
152 77 -5e-06
152 152 0.001528623
153 85 -5e-06
153 153 0.001528623
154 97 -5e-06
154 154 0.001528623
155 100 -5e-06
155 155 0.001528623
156 108 -5e-06
156 156 0.001528623
157 121 -5e-06
157 157 0.001528623
158 1 -3.633981e-06
158 5 -9.649044e-09
158 13 -2.029093e-06
158 21 -2.920504e-05
158 26 -3.294358e-06
158 29 -1.178864e-07
158 30 -3.536591e-07
158 42 -6.660604e-07
158 49 -3.633983e-08
158 57 -3.794606
158 137 -0.7824548
158 158 2652000.0
158 159 -33.0
158 164 -1100.0
158 168 -33.3
159 1 -2.910641e-06
159 49 -2.347291e-07
159 56 -0.4524338
159 159 225.4015
160 1 -8.882779e-07
160 49 -6.001875e-08
160 59 -0.5400016
160 160 2292.002
161 1 -1.585906e-07
161 49 -1.071558e-08
161 60 -0.5400016
161 161 3392.402
162 1 -1.067161e-06
162 49 -7.210545e-08
162 64 -0.5400016
162 162 192.4015
163 1 -3.592894e-06
163 49 -2.897495e-07
163 68 -0.4524338
163 163 2236.002
164 1 -7.969997e-07
164 49 -6.427419e-08
164 70 -0.4524338
164 164 1292.402
165 1 -1.855668e-08
165 49 -1.496506e-09
165 71 -0.4524338
165 165 192.4015
166 1 -2.781016e-06
166 49 -2.242755e-07
166 73 -0.4524338
166 166 2236.002
167 1 -1.400565e-07
167 49 -1.129488e-08
167 74 -0.4524338
167 167 192.4015
168 1 -3.532993e-07
168 49 -2.849187e-08
168 78 -0.4524338
168 168 33.30153
169 1 -7.231833e-08
169 49 -5.832122e-09
169 80 -0.4524338
169 169 192.4015
170 1 -4.093162e-07
170 49 -3.300937e-08
170 81 -0.4524338
170 170 192.4015
171 1 -2.145197e-07
171 49 -1.729998e-08
171 82 -0.4524338
171 171 192.4015
172 1 -2.076159e-08
172 49 -1.674321e-09
172 87 -0.4524338
172 172 192.4015
173 1 -6.167524e-09
173 49 -4.97381e-10
173 90 -0.4524338
173 173 192.4015
174 1 -1.25102e-07
174 49 -1.008888e-08
174 91 -0.4524338
174 174 192.4015
175 1 -6.098557e-08
175 49 -4.918191e-09
175 92 -0.4524338
175 175 192.4015
176 1 -3.714443e-07
176 49 -2.995518e-08
176 93 -0.4524338
176 176 192.4015
177 1 -5.064263e-07
177 49 -4.084083e-08
177 94 -0.4524338
177 177 3200.002
178 15 -1.2446e-06
178 137 -0.3253189
178 178 2236.002
179 1 -2.777259e-07
179 107 -0.4524337
179 179 2236.002
180 41 -1.61798e-05
180 137 -0.08604497
180 180 2236.002
181 16 -3.7338e-06
181 137 -0.2850674
181 181 2236.002
182 1 -2.43389e-07
182 116 -0.4524337
182 182 2236.002
183 117 -2.4892e-05
183 137 -0.05035142
183 183 2236.002
