%%MatrixMarket matrix coordinate real general
% migrated from Universal blas/matrices/fs_183_1.hpp (universal#1210)
183 183 998
1 1 0.002560367
1 2 -3.38343e-16
1 42 0.01959714
1 43 12.85661
1 49 3.174471
1 50 1.587236
1 56 0.4920431
1 57 4.126813
1 59 0.5872772
1 60 0.5872772
1 61 0.4920431
1 62 1.063448
1 64 0.5872772
1 65 1.063448
1 68 0.4920431
1 70 0.4920431
1 71 0.4920431
1 73 0.4920431
1 74 0.5364857
1 76 1.063448
1 78 0.5364857
1 80 0.5714049
1 81 0.5714049
1 82 0.5714049
1 84 1.063448
1 87 0.4920431
1 90 0.4920431
1 91 0.5714049
1 92 0.5714049
1 93 0.5714049
1 94 0.5714049
1 96 1.063448
1 99 1.063448
1 103 0.4920431
1 105 0.4920431
1 107 0.4920431
1 109 0.4920431
1 112 0.4920431
1 114 0.4920431
1 115 0.4920431
1 116 0.4920431
1 118 0.4920431
1 122 0.4920431
1 123 0.4920431
1 125 0.4920431
1 126 0.4920431
1 127 0.4920431
1 128 0.4920431
1 129 4.920431
1 130 0.4920431
1 131 0.4920431
1 132 0.4920431
1 133 0.4920431
1 136 -7.111616
1 137 19.04683
1 140 30.14975
2 1 -1.170896e-07
2 2 0.002562768
2 42 -0.01957345
2 43 -11.61478
2 44 -7.348658e-09
2 46 -0.009866611
2 49 -3.174471
2 50 -1.587236
2 51 1.159692
2 56 -0.4920431
2 57 -2.503244
2 58 -4.205055e-05
2 59 -0.5872772
2 60 -0.5872772
2 61 -0.4920431
2 62 -0.611168
2 63 -4.205055e-05
2 64 -0.5872772
2 65 -0.611168
2 66 -4.205055e-05
2 68 -0.4920431
2 70 -0.4920431
2 71 -0.4920431
2 73 -0.4920431
2 74 -0.4920431
2 76 -0.611168
2 77 -4.205055e-05
2 78 -0.4920431
2 80 -0.4920431
2 81 -0.4920431
2 82 -0.4920431
2 84 -0.611168
2 85 -4.205055e-05
2 87 -0.4920431
2 90 -0.4920431
2 91 -0.4920431
2 92 -0.4920431
2 93 -0.4920431
2 94 -0.4920431
2 96 -0.611168
2 97 -4.205055e-05
2 99 -0.611168
2 100 -4.205055e-05
2 103 -0.4920431
2 105 -0.4920431
2 107 -0.4920431
2 108 -4.205055e-05
2 109 -0.03976312
2 110 0.45228
2 112 -0.4920431
2 114 -0.4920431
2 115 -0.4920431
2 116 -0.4920431
2 118 -0.03976312
2 119 0.45228
2 121 -4.210351e-05
2 122 -0.4920431
2 123 -0.4920431
2 125 -0.4920431
2 126 -0.4920431
2 127 -0.4920431
2 128 -0.4920431
2 129 -4.920431
2 130 -0.4920431
2 131 -0.4920431
2 132 -0.4920431
2 133 -0.4920431
2 136 7.178287
2 137 12.69781
2 140 -56.6912
2 141 -0.01666609
3 3 0.002580237
3 49 0.007477326
3 137 1.551898
4 4 0.002560236
4 20 -1.01905e-08
4 137 4.542268
5 5 0.002560236
5 137 0.5229845
6 6 0.002560236
6 137 0.7613816
7 7 0.002560238
7 137 1.480231
8 8 0.002560238
8 137 1.00034
9 9 0.002560238
9 137 0.5128519
10 10 0.00256024
10 137 0.885393
11 11 0.002560239
11 137 1.357291
12 12 0.002560245
12 42 5.470667e-07
12 137 4.53713
13 13 0.002560267
13 42 1.045302e-06
13 137 4.055676
14 14 0.002560236
14 137 0.3312138
15 15 0.002560243
15 137 2.042784
16 16 0.002560251
16 137 1.345259
17 17 0.002560263
17 137 3.076618
18 18 0.002560252
18 137 1.244412
19 19 0.002560244
19 137 0.733865
20 1 -2.586021e-09
20 12 -1.824941e-14
20 13 -6.406759e-14
20 20 0.002560246
20 31 -1.224776e-09
20 42 -1.069717e-06
20 49 -4.66085e-09
20 126 -0.4920431
20 127 -0.4920431
20 131 -0.4920431
20 132 -0.4920431
20 137 1.348271
20 140 0.000118467
20 144 -9360.0
20 159 -33.0
20 161 -3200.0
20 163 -4472.0
20 166 -2236.0
21 1 -4.219196e-09
21 13 -6.406759e-14
21 21 0.002560255
21 32 -3.674329e-09
21 42 -5.226508e-07
21 128 -0.9840862
21 130 -0.4920431
21 133 -0.4920431
21 137 0.6469882
21 140 2.36934e-05
21 159 -192.4
21 160 -1200.0
21 164 -1100.0
21 166 -2236.0
22 1 -1.539733e-09
22 22 0.002560258
22 127 -0.4920431
22 130 -0.4920431
22 137 0.2369911
22 162 -192.4
23 1 -6.992289e-10
23 23 0.002560252
23 129 -4.920431
23 137 0.04863624
23 161 -192.4
24 1 -4.146606e-10
24 24 0.002560252
24 132 -0.4920431
24 137 0.0252137
24 167 -192.4
25 25 0.002560237
25 137 0.0007713506
25 169 -192.4
26 1 -9.308915e-10
26 26 0.002560236
26 126 -0.4920431
26 133 -0.4920431
26 137 0.01435089
26 164 -192.4
26 168 -33.3
26 177 -3200.0
27 1 -9.604355e-10
27 27 0.00256024
27 131 -0.4920431
27 137 0.06679405
27 160 -1092.0
28 28 0.002560242
28 137 0.002489159
28 171 -192.4
29 29 0.002560242
29 137 0.008490743
29 170 -192.4
30 30 0.002560236
30 176 -192.4
31 31 0.002560237
31 49 -4.651519e-09
31 137 0.0001270842
32 32 0.002560239
32 137 0.3821616
33 33 0.002560281
33 137 0.7100071
34 34 0.002560312
34 137 1.799538
35 35 0.002560336
35 137 0.8653551
36 36 0.002560272
36 137 0.6870828
37 37 0.002560308
37 137 1.059317
38 38 0.002560275
38 137 0.2813771
39 39 0.002560247
39 137 0.3108531
40 40 0.002560297
40 137 0.3966739
41 41 0.00256025
41 137 0.05802112
41 179 -2236.0
42 1 2.171878e-10
42 2 3.592573e-13
42 12 1.82492e-14
42 13 1.281355e-13
42 42 0.02219765
42 43 3.155818e-11
42 136 -88821.07
42 137 1.174502e-09
43 1 3.647893e-08
43 2 6.776265e-09
43 13 -6.406778e-14
43 20 -1.01905e-08
43 31 -1.224776e-09
43 32 -3.674329e-09
43 42 -5.227136e-07
43 43 14.101
43 46 -0.009866611
43 47 -7.813937e-10
43 49 8.206737e-09
43 61 -0.4920431
43 69 -4472.0
43 103 -0.4920431
43 105 -0.4920431
43 112 -0.4920431
43 114 -0.4920431
43 115 -0.4920431
43 122 -0.4920431
43 123 -0.4920431
43 125 -0.4920431
43 126 -0.4920431
43 127 -0.4920431
43 128 -0.4920431
43 129 -9.840862
43 130 -0.4920431
43 131 -0.4920431
43 132 -0.4920431
43 133 -0.4920431
43 137 -1.730691
43 138 -7778510.0
43 140 -0.0001178588
43 144 -9360.0
43 159 -192.4
43 160 -1092.0
43 161 -192.4
43 162 -192.4
43 163 -2236.0
43 164 -192.4
43 165 -192.4
43 166 -2236.0
43 167 -192.4
43 169 -192.4
43 170 -192.4
43 171 -192.4
43 172 -192.4
43 173 -192.4
43 174 -192.4
43 176 -192.4
43 179 -2236.0
43 182 -2236.0
44 1 -1.33612e-08
44 44 0.002560243
44 137 -18.98802
45 2 -1.224776e-08
45 20 -4.038104e-17
45 21 -1.865674e-17
45 45 0.002615236
45 137 -12.75561
45 140 -0.0001421604
46 2 -6.776265e-09
46 43 -1.24183
46 46 0.01242685
47 43 -3.959514e-08
47 47 0.002590237
47 137 4.518679e-06
47 140 2.634023e-09
48 48 0.002560236
48 137 0.05235981
49 1 1.408677e-08
49 3 3.732995e-11
49 43 9.156397e-09
49 49 3.184509
49 56 1.760841e-10
49 57 1.83123e-10
49 59 1.760986e-10
49 60 1.76104e-10
49 61 1.761059e-10
49 62 1.760796e-10
49 64 1.760916e-10
49 65 1.760485e-10
49 68 1.760875e-10
49 70 1.760814e-10
49 71 1.760459e-10
49 73 1.760879e-10
49 74 1.760764e-10
49 76 1.760891e-10
49 78 1.760864e-10
49 80 1.761313e-10
49 81 1.760979e-10
49 82 1.761118e-10
49 87 1.761166e-10
49 90 1.760904e-10
49 91 1.761093e-10
49 92 1.760938e-10
49 93 1.760842e-10
49 94 1.760702e-10
49 96 1.760866e-10
49 99 1.761259e-10
49 158 -2652000.0
50 1 1.305985e-09
50 50 1.589796
50 142 -5200.0
51 1 -1.305985e-09
51 2 2.084654e-09
51 50 -1.587236
51 51 1.162252
52 2 -2.084654e-09
52 51 -1.159692
52 52 0.002560236
52 143 -228387.6
53 2 -2.084654e-09
53 45 -3e-05
53 51 -1.159692
53 53 0.002560236
53 75 -3e-05
53 79 -3e-05
53 83 -3e-05
53 86 -3e-05
53 89 -3e-05
53 95 -3e-05
53 98 -3e-05
53 101 -3e-05
53 102 -3e-05
53 111 -3e-05
53 120 -3e-05
53 141 -6.000027e-05
54 47 -3e-05
54 54 0.002560236
55 43 -9.156403e-09
55 49 -8.226488e-09
55 55 0.002560236
56 1 1.913775e-09
56 6 -2.598513e-10
56 49 2.327304e-10
56 56 0.4946033
56 62 -1.063448
56 137 -0.7613816
56 160 -1200.0
56 177 -3200.0
57 1 1.157436e-08
57 2 6.232348e-09
57 21 -1.9161e-08
57 49 1.15741e-10
57 57 5.752942
57 58 -4.205055e-05
57 137 -1.02915
57 140 -2.451315e-05
58 2 -6.232348e-09
58 57 -1.623569
58 58 0.002607286
59 1 8.1884e-10
59 8 -2.073248e-09
59 49 6.432077e-11
59 59 0.5898375
59 96 -1.063448
59 137 -0.8574341
60 1 3.175236e-10
60 8 -3.455414e-10
60 49 3.95535e-11
60 60 0.5898375
60 84 -1.063448
60 137 -0.1429057
61 1 2.641174e-10
61 27 -3.785672e-09
61 49 2.130154e-11
61 61 0.4946033
61 137 -0.06679405
62 1 1.806834e-09
62 2 1.051739e-09
62 22 -2.226866e-08
62 49 6.741586e-11
62 62 1.518288
62 63 -4.205055e-05
62 137 -0.2369911
63 2 -1.051739e-09
63 62 -0.45228
63 63 0.002607286
64 1 1.282847e-09
64 7 -1.197293e-09
64 49 1.015204e-10
64 64 0.5898375
64 65 -1.063448
64 137 -0.7317173
64 161 -3200.0
65 1 4.905554e-10
65 2 2.855472e-10
65 23 -1.67015e-08
65 49 1.830398e-11
65 65 1.518288
65 66 -4.205055e-05
65 137 -0.04863624
66 2 -2.855472e-10
66 65 -0.45228
66 66 0.002607286
67 1 -1.222951e-09
67 49 -2.130154e-11
67 61 -0.4920431
67 67 0.002560236
67 115 -0.4920431
68 1 3.400475e-09
68 12 -9.580046e-09
68 49 2.742346e-10
68 68 0.4946033
68 137 -4.53713
69 12 -1.82492e-14
69 13 -6.406777e-14
69 42 -1.069714e-06
69 69 2236.003
70 1 7.424492e-10
70 7 -1.224776e-09
70 49 7.703277e-11
70 70 0.4946033
70 76 -1.063448
70 137 -0.7485133
71 1 2.273214e-10
71 26 -5.567165e-10
71 49 1.832999e-11
71 71 0.4946033
71 137 -0.01435089
72 1 -5.283443e-09
72 72 0.002560236
72 103 -0.4920431
72 112 -0.4920431
72 114 -0.4920431
72 122 -0.4920431
72 165 -192.4
73 1 3.062631e-09
73 13 -3.146817e-08
73 49 2.469899e-10
73 73 0.4946033
73 137 -4.055676
74 1 3.065875e-10
74 9 -6.046974e-10
74 49 3.397453e-11
74 74 0.5390459
74 99 -1.063448
74 137 -0.1273037
75 1 -5.094622e-11
75 74 -0.0444426
75 75 0.002590236
76 1 3.960495e-10
76 2 2.305362e-10
76 24 -1.67015e-08
76 49 1.477973e-11
76 76 1.518288
76 77 -4.205055e-05
76 137 -0.0252137
77 2 -2.305362e-10
77 76 -0.45228
77 77 0.002607286
78 1 4.877537e-10
78 9 -1.831369e-09
78 49 3.607477e-11
78 78 0.5390459
78 137 -0.3855483
79 1 -4.040563e-11
79 78 -0.0444426
79 79 0.002590236
80 1 2.816301e-10
80 10 -4.119702e-10
80 49 1.955892e-11
80 80 0.5739651
80 137 -0.09176342
81 1 5.826518e-10
81 10 -2.338209e-09
81 49 4.046382e-11
81 81 0.5739651
81 137 -0.5208194
82 1 4.086508e-10
82 10 -1.224776e-09
82 49 2.837604e-11
82 82 0.5739651
82 137 -0.2728102
83 1 -3.911529e-11
83 80 -0.07936179
83 83 0.002590236
84 1 2.67817e-10
84 2 1.558935e-10
84 25 -1.67015e-09
84 84 1.518288
84 85 -4.205055e-05
84 137 -0.0007713506
85 2 -1.558935e-10
85 84 -0.45228
85 85 0.002607286
86 1 -8.092386e-11
86 81 -0.07936179
86 86 0.002590236
87 1 2.232109e-10
87 29 -6.346568e-09
87 49 1.800487e-11
87 87 0.4946033
87 137 -0.008490743
88 88 0.002560236
88 172 -192.4
88 173 -192.4
89 1 -5.675706e-11
89 82 -0.07936179
89 89 0.002590236
90 1 2.189991e-10
90 28 -6.346568e-09
90 49 1.766025e-11
90 90 0.4946033
90 137 -0.002489159
91 1 3.291029e-10
91 11 -4.119702e-10
91 49 2.285559e-11
91 91 0.5739651
91 137 -0.1594278
92 1 2.716648e-10
92 11 -2.004179e-10
92 49 1.886318e-11
92 92 0.5739651
92 137 -0.07755948
93 1 5.49786e-10
93 11 -1.224776e-09
93 49 3.818152e-11
93 93 0.5739651
93 137 -0.4739746
94 1 6.707083e-10
94 11 -1.67015e-09
94 49 4.657599e-11
94 94 0.5739651
94 137 -0.646329
95 1 -4.570873e-11
95 91 -0.07936179
95 95 0.002590236
96 1 2.972567e-10
96 2 1.7303e-10
96 49 1.109293e-11
96 96 1.518288
96 97 -4.205055e-05
96 134 -1.67015e-08
96 137 -0.005294262
97 2 -1.7303e-10
97 96 -0.45228
97 97 0.002607286
98 1 -3.773122e-11
98 92 -0.07936179
98 98 0.002590236
99 1 3.084062e-10
99 2 1.7952e-10
99 49 1.150907e-11
99 99 1.518288
99 100 -4.205055e-05
99 135 -5.344479e-08
99 137 -0.007368421
100 2 -1.7952e-10
100 99 -0.45228
100 100 0.002607286
101 1 -7.635917e-11
101 93 -0.07936179
101 101 0.002590236
102 1 -9.315394e-11
102 94 -0.07936179
102 102 0.002590236
103 1 1.426533e-09
103 15 -6.012538e-09
103 103 0.4946033
103 137 -1.723599
104 1 -3.117499e-09
104 103 -0.4920431
104 104 0.002560258
104 115 -0.4920431
104 123 -0.4920431
104 137 0.2124295
105 1 3.663312e-10
105 104 -2.226866e-08
105 105 0.4946033
105 137 -0.2124295
106 1 -1.573097e-09
106 105 -0.9840862
106 106 0.002560236
106 114 -0.4920431
106 125 -0.4920431
107 1 4.411932e-10
107 107 0.4946033
107 178 -2236.0
108 2 -7.358794e-10
108 108 0.002607286
108 109 -0.45228
109 1 5.849298e-10
109 2 7.358794e-10
109 108 -4.205055e-05
109 109 0.9468833
109 180 -2236.0
110 1 -5.849298e-10
110 2 1.097807e-09
110 109 -0.4920431
110 110 0.4548402
111 2 -1.097807e-09
111 110 -0.45228
111 111 0.002590236
112 1 2.375783e-09
112 17 -2.672239e-08
112 112 0.4946033
112 137 -3.076618
113 1 -3.466111e-09
113 112 -0.4920431
113 113 0.002560258
113 122 -0.4920431
113 137 0.2472943
114 1 3.907987e-10
114 113 -2.226866e-08
114 114 0.4946033
114 137 -0.2472943
115 1 9.588335e-10
115 16 -1.224776e-08
115 115 0.4946033
115 137 -1.056989
116 1 4.195017e-10
116 116 0.4946033
116 181 -2236.0
117 117 0.002560258
117 137 0.01727653
117 182 -2236.0
118 1 4.118194e-10
118 2 5.180954e-10
118 118 0.9468833
118 121 -4.210351e-05
118 183 -2236.0
119 1 -4.118194e-10
119 2 8.609286e-10
119 118 -0.4920431
119 119 0.4548402
120 2 -8.609286e-10
120 119 -0.45228
120 120 0.002590236
121 2 -5.180954e-10
121 118 -0.45228
121 121 0.002607339
122 1 1.090328e-09
122 18 -1.67015e-08
122 122 0.4946033
122 137 -1.244412
123 1 7.321329e-10
123 19 -8.350748e-09
123 123 0.4946033
123 137 -0.733865
124 1 -7.321329e-10
124 123 -0.4920431
124 124 0.002560236
125 1 4.496357e-10
125 14 -6.980734e-10
125 125 0.4946033
125 137 -0.3312138
126 1 4.955474e-10
126 40 -6.128297e-08
126 126 0.4946033
126 137 -0.3966739
127 1 7.153775e-10
127 33 -4.472206e-08
127 127 0.4946033
127 137 -0.7100071
128 1 1.479748e-09
128 34 -7.613598e-08
128 128 0.4946033
128 137 -1.799538
129 1 6.992289e-10
129 36 -3.663566e-08
129 129 4.922991
129 137 -0.6870828
130 1 8.243559e-10
130 35 -1.00209e-07
130 130 0.4946033
130 137 -0.8653551
131 1 9.604355e-10
131 37 -7.200803e-08
131 131 0.4946033
131 137 -1.059317
132 1 4.146606e-10
132 38 -3.874408e-08
132 132 0.4946033
132 137 -0.2813771
133 1 4.353441e-10
133 39 -1.08012e-08
133 133 0.4946033
133 137 -0.3108531
134 134 0.002560252
134 137 0.005294262
134 174 -192.4
135 135 0.002560289
135 137 0.007368421
135 175 -192.4
136 1 -1.811031e-25
136 2 -7.712897e-25
136 43 -2.952909e-24
136 136 88835.02
136 137 -3.782227e-24
136 139 -765000000.0
137 1 -3.789615e-08
137 2 1.224776e-08
137 3 1.224776e-09
137 4 3.215428e-10
137 5 6.254973e-12
137 6 2.598513e-10
137 7 2.42207e-09
137 8 2.418789e-09
137 9 2.436067e-09
137 10 3.974956e-09
137 11 3.507314e-09
137 12 9.580046e-09
137 13 3.146817e-08
137 14 6.980734e-10
137 15 7.125971e-09
137 16 1.558806e-08
137 17 2.672239e-08
137 18 1.67015e-08
137 19 8.350748e-09
137 20 1.01905e-08
137 21 1.9161e-08
137 22 2.226866e-08
137 23 1.67015e-08
137 24 1.67015e-08
137 25 1.67015e-09
137 26 5.567165e-10
137 27 3.785672e-09
137 28 6.346568e-09
137 29 6.346568e-09
137 31 1.224776e-09
137 32 3.674329e-09
137 33 4.472206e-08
137 34 7.613598e-08
137 35 1.00209e-07
137 36 3.663566e-08
137 37 7.200803e-08
137 38 3.874408e-08
137 39 1.08012e-08
137 40 6.128297e-08
137 41 1.447463e-08
137 42 6.298045e-11
137 43 -12.85661
137 44 7.348658e-09
137 45 8.907464e-11
137 47 7.813944e-10
137 48 4.154626e-12
137 104 2.226866e-08
137 113 2.226866e-08
137 117 2.226866e-08
137 134 1.67015e-08
137 135 5.344479e-08
137 137 73.0696
137 139 -115453100.0
138 4 -3.215428e-10
138 48 -4.154626e-12
138 137 -5.943026
138 138 7778510.0
139 139 822724300.0
140 1 9.67337e-13
140 2 -1.998289e-13
140 20 4.072998e-17
140 21 2.087411e-17
140 42 -2.36845e-05
140 45 -8.907464e-11
140 47 2.086591e-17
140 137 -0.001003621
140 140 33.79163
140 141 -0.0166661
141 2 -1.590894e-13
141 140 -3.623763
141 141 0.01922185
142 3 -1.224776e-09
142 137 -1.551898
142 142 5200.003
143 3 -3.732995e-11
143 49 -0.007477326
143 143 228387.6
144 1 -1.408677e-08
144 3 -3.732995e-11
144 49 -3.181949
144 56 -1.760847e-10
144 57 -1.831281e-10
144 59 -1.760847e-10
144 60 -1.760847e-10
144 61 -1.760847e-10
144 62 -1.760847e-10
144 64 -1.760847e-10
144 65 -1.760847e-10
144 68 -1.760847e-10
144 70 -1.760847e-10
144 71 -1.760847e-10
144 73 -1.760847e-10
144 74 -1.760847e-10
144 76 -1.760847e-10
144 78 -1.760847e-10
144 80 -1.760847e-10
144 81 -1.760847e-10
144 82 -1.760847e-10
144 87 -1.760847e-10
144 90 -1.760847e-10
144 91 -1.760847e-10
144 92 -1.760847e-10
144 93 -1.760847e-10
144 94 -1.760847e-10
144 96 -1.760847e-10
144 99 -1.760847e-10
144 144 9360.003
145 45 -2.5e-05
145 145 0.002525756
146 3 -2e-05
146 146 0.002525756
147 2 -2.5e-06
147 147 0.002525756
148 42 -1.5e-05
148 148 0.002525756
149 58 -5e-06
149 149 0.002525756
150 63 -5e-06
150 150 0.002525756
151 66 -5e-06
151 151 0.002525756
152 77 -5e-06
152 152 0.002525756
153 85 -5e-06
153 153 0.002525756
154 97 -5e-06
154 154 0.002525756
155 100 -5e-06
155 155 0.002525756
156 108 -5e-06
156 156 0.002525756
157 121 -5e-06
157 157 0.002525756
158 1 -1.157436e-08
158 5 -6.254973e-12
158 13 -6.406777e-14
158 42 -5.226505e-07
158 49 -1.15741e-10
158 57 -4.126813
158 137 -0.5229845
158 158 2652000.0
158 159 -33.0
158 164 -1100.0
158 168 -33.3
159 1 -3.720609e-09
159 49 -3.001463e-10
159 56 -0.4920431
159 159 225.4025
160 1 -1.116097e-09
160 49 -7.54137e-11
160 59 -0.5872772
160 160 2292.003
161 1 -5.853406e-10
161 49 -3.95535e-11
161 60 -0.5872772
161 161 3392.403
162 1 -1.773402e-09
162 49 -1.198244e-10
162 64 -0.5872772
162 162 192.4025
163 1 -3.400475e-09
163 49 -2.742411e-10
163 68 -0.4920431
163 163 2236.003
164 1 -1.138499e-09
164 49 -9.18125e-11
164 70 -0.4920431
164 164 1292.403
165 1 -2.273214e-10
165 49 -1.832999e-11
165 71 -0.4920431
165 165 192.4025
166 1 -3.062631e-09
166 49 -2.469834e-10
166 73 -0.4920431
166 166 2236.003
167 1 -5.640474e-10
167 49 -4.54836e-11
167 74 -0.4920431
167 167 192.4025
168 1 -4.473481e-10
168 49 -3.607477e-11
168 78 -0.4920431
168 168 33.30253
169 1 -2.425148e-10
169 49 -1.955892e-11
169 80 -0.4920431
169 169 192.4025
170 1 -5.017279e-10
170 49 -4.046382e-11
170 81 -0.4920431
170 170 192.4025
171 1 -3.518938e-10
171 49 -2.838255e-11
171 82 -0.4920431
171 171 192.4025
172 1 -2.232109e-10
172 49 -1.800487e-11
172 87 -0.4920431
172 172 192.4025
173 1 -2.189991e-10
173 49 -1.766025e-11
173 90 -0.4920431
173 173 192.4025
174 1 -2.833941e-10
174 49 -2.285559e-11
174 91 -0.4920431
174 174 192.4025
175 1 -2.339336e-10
175 49 -1.886318e-11
175 92 -0.4920431
175 175 192.4025
176 1 -4.734269e-10
176 49 -3.818152e-11
176 93 -0.4920431
176 176 192.4025
177 1 -5.775544e-10
177 49 -4.657599e-11
177 94 -0.4920431
177 177 3200.003
178 15 -1.113433e-09
178 137 -0.3191851
178 178 2236.003
179 1 -4.411932e-10
179 107 -0.4920431
179 179 2236.003
180 41 -1.447463e-08
180 137 -0.05802112
180 180 2236.003
181 16 -3.340299e-09
181 137 -0.2882699
181 181 2236.003
182 1 -4.195017e-10
182 116 -0.4920431
182 182 2236.003
183 117 -2.226866e-08
183 137 -0.01727653
183 183 2236.003
