%%MatrixMarket matrix coordinate real general
% migrated from Universal blas/matrices/gre_343.hpp (universal#1210)
343 343 1310
1 1 0.75
1 5 0.25
2 1 0.25
2 2 0.5
2 8 0.25
3 2 0.25
3 3 0.5
3 12 0.25
4 2 0.25
4 4 0.5
4 13 0.25
5 3 0.25
5 5 0.5
5 17 0.25
6 3 0.25
6 4 0.25
6 6 0.25
6 18 0.25
7 4 0.25
7 7 0.5
7 19 0.25
8 8 0.25
8 9 0.25
8 12 0.25
8 31 0.25
9 6 0.25
9 9 0.5
9 25 0.25
10 6 0.25
10 7 0.25
10 10 0.25
10 26 0.25
11 7 0.25
11 11 0.5
11 27 0.25
12 8 0.25
12 10 0.25
12 13 0.25
12 32 0.25
13 12 0.25
13 13 0.25
13 14 0.25
13 41 0.25
14 9 0.25
14 10 0.25
14 14 0.25
14 33 0.25
15 10 0.25
15 11 0.25
15 15 0.25
15 34 0.25
16 11 0.25
16 16 0.5
16 35 0.25
17 12 0.25
17 17 0.5
17 40 0.25
18 18 0.25
18 20 0.25
18 25 0.25
18 51 0.25
19 18 0.25
19 19 0.25
19 21 0.25
19 52 0.25
20 14 0.25
20 20 0.5
20 43 0.25
21 14 0.25
21 15 0.25
21 21 0.25
21 44 0.25
22 15 0.25
22 16 0.25
22 22 0.25
22 45 0.25
23 16 0.25
23 23 0.75
23 46 0.25
24 17 0.25
24 18 0.25
24 24 0.25
24 50 0.25
25 24 0.25
25 25 0.25
25 31 0.25
25 61 0.25
26 25 0.25
26 26 0.25
26 28 0.25
26 63 0.25
27 26 0.25
27 27 0.25
27 29 0.25
27 64 0.25
28 20 0.25
28 21 0.25
28 28 0.25
28 54 0.25
29 21 0.25
29 22 0.25
29 29 0.25
29 55 0.25
30 22 0.25
30 23 0.25
30 30 0.25
30 56 0.25
31 5 0.25
31 6 0.25
31 8 0.25
31 24 0.25
32 24 0.25
32 26 0.25
32 32 0.25
32 62 0.25
33 13 0.25
33 15 0.25
33 19 0.25
33 42 0.25
34 33 0.25
34 34 0.25
34 37 0.25
34 77 0.25
35 34 0.25
35 35 0.25
35 38 0.25
35 78 0.25
36 28 0.25
36 36 0.5
36 66 0.25
37 28 0.25
37 29 0.25
37 37 0.25
37 67 0.25
38 29 0.25
38 30 0.25
38 38 0.25
38 68 0.25
39 30 0.25
39 39 0.5
39 69 0.25
40 31 0.25
40 40 0.5
40 73 0.25
41 40 0.25
41 41 0.25
41 50 0.25
41 87 0.25
42 32 0.25
42 34 0.25
42 42 0.25
42 75 0.25
43 33 0.25
43 36 0.25
43 43 0.25
43 76 0.25
44 44 0.25
44 45 0.25
44 48 0.25
44 92 0.25
45 19 0.25
45 22 0.25
45 27 0.25
45 53 0.25
46 35 0.25
46 39 0.25
46 46 0.5
46 79 0.25
47 36 0.25
47 37 0.25
47 47 0.25
47 80 0.25
48 37 0.25
48 38 0.25
48 48 0.25
48 81 0.25
49 38 0.25
49 39 0.25
49 49 0.25
49 82 0.25
50 41 0.25
50 42 0.25
50 44 0.25
50 89 0.25
51 41 0.25
51 43 0.25
51 51 0.25
51 88 0.25
52 51 0.25
52 52 0.25
52 54 0.25
52 103 0.25
53 42 0.25
53 45 0.25
53 53 0.25
53 90 0.25
54 47 0.25
54 48 0.25
54 58 0.25
54 95 0.25
55 27 0.25
55 30 0.25
55 35 0.25
55 65 0.25
56 55 0.25
56 56 0.25
56 59 0.25
56 108 0.25
57 47 0.25
57 57 0.5
57 94 0.25
58 54 0.25
58 55 0.25
58 58 0.25
58 107 0.25
59 58 0.25
59 59 0.25
59 71 0.25
59 111 0.25
60 49 0.25
60 60 0.5
60 97 0.25
61 61 0.25
61 73 0.5
61 116 0.25
62 50 0.25
62 52 0.25
62 62 0.25
62 102 0.25
63 61 0.25
63 62 0.25
63 63 0.25
63 117 0.25
64 63 0.25
64 64 0.25
64 67 0.25
64 120 0.25
65 53 0.25
65 56 0.25
65 65 0.25
65 105 0.25
66 54 0.25
66 57 0.25
66 66 0.25
66 106 0.25
67 31 0.25
67 32 0.25
67 33 0.25
67 74 0.25
68 64 0.25
68 65 0.25
68 68 0.25
68 121 0.25
69 68 0.25
69 69 0.25
69 72 0.25
69 125 0.25
70 57 0.25
70 58 0.25
70 70 0.25
70 110 0.25
71 67 0.25
71 68 0.25
71 71 0.25
71 124 0.25
72 59 0.25
72 60 0.25
72 72 0.25
72 112 0.25
73 70 0.25
73 71 0.25
73 84 0.25
73 127 0.25
74 74 0.25
74 76 0.25
74 88 0.25
74 133 0.25
75 62 0.25
75 64 0.25
75 75 0.25
75 118 0.25
76 63 0.25
76 66 0.25
76 76 0.25
76 119 0.25
77 76 0.25
77 77 0.25
77 80 0.25
77 136 0.25
78 75 0.25
78 78 0.25
78 90 0.25
78 135 0.25
79 65 0.25
79 69 0.25
79 79 0.5
79 122 0.25
80 52 0.25
80 53 0.25
80 55 0.25
80 104 0.25
81 80 0.25
81 81 0.25
81 84 0.25
81 140 0.25
82 82 0.25
82 86 0.25
82 97 0.25
82 142 0.25
83 70 0.25
83 83 0.5
83 126 0.25
84 43 0.25
84 44 0.25
84 47 0.25
84 91 0.25
85 71 0.25
85 72 0.25
85 85 0.25
85 128 0.25
86 72 0.25
86 86 0.5
86 129 0.25
87 73 0.25
87 74 0.25
87 87 0.25
87 132 0.25
88 87 0.25
88 88 0.25
88 101 0.25
88 148 0.25
89 50 0.25
89 51 0.25
89 61 0.25
89 101 0.25
90 77 0.25
90 78 0.25
90 81 0.25
90 137 0.25
91 88 0.25
91 89 0.25
91 91 0.25
91 150 0.25
92 89 0.25
92 90 0.25
92 92 0.25
92 151 0.25
93 45 0.25
93 46 0.25
93 49 0.25
93 93 0.25
94 66 0.25
94 67 0.25
94 70 0.25
94 123 0.25
95 91 0.25
95 92 0.25
95 95 0.25
95 154 0.25
96 48 0.25
96 49 0.25
96 59 0.25
96 96 0.25
97 56 0.25
97 60 0.25
97 69 0.25
97 109 0.25
98 83 0.25
98 84 0.25
98 98 0.5
98 143 0.25
99 84 0.25
99 85 0.25
99 99 0.25
99 144 0.25
100 85 0.25
100 86 0.25
100 100 0.25
100 145 0.25
101 95 0.25
101 96 0.25
101 99 0.25
101 158 0.25
102 87 0.25
102 89 0.25
102 102 0.25
102 149 0.25
103 101 0.25
103 102 0.25
103 103 0.25
103 165 0.25
104 102 0.25
104 104 0.25
104 118 0.25
104 166 0.25
105 104 0.25
105 105 0.25
105 108 0.25
105 169 0.25
106 91 0.25
106 94 0.25
106 106 0.25
106 153 0.25
107 106 0.25
107 107 0.25
107 110 0.25
107 171 0.25
108 92 0.25
108 93 0.25
108 96 0.25
108 155 0.25
109 93 0.25
109 97 0.25
109 109 0.25
109 156 0.25
110 80 0.25
110 83 0.25
110 94 0.25
110 139 0.25
111 99 0.25
111 100 0.25
111 114 0.25
111 161 0.25
112 108 0.25
112 109 0.25
112 112 0.25
112 173 0.25
113 98 0.25
113 99 0.25
113 113 0.5
113 160 0.25
114 111 0.25
114 112 0.25
114 114 0.25
114 176 0.25
115 100 0.25
115 115 0.5
115 162 0.25
116 101 0.25
116 116 0.5
116 164 0.25
117 117 0.25
117 119 0.25
117 133 0.25
117 182 0.25
118 78 0.25
118 79 0.25
118 82 0.25
118 138 0.25
119 103 0.25
119 106 0.25
119 119 0.25
119 167 0.25
120 117 0.25
120 118 0.25
120 120 0.25
120 183 0.25
121 118 0.25
121 121 0.25
121 135 0.25
121 184 0.25
122 105 0.25
122 109 0.25
122 122 0.5
122 170 0.25
123 123 0.25
123 126 0.25
123 139 0.25
123 188 0.25
124 120 0.25
124 121 0.25
124 124 0.25
124 186 0.25
125 107 0.25
125 108 0.25
125 111 0.25
125 172 0.25
126 96 0.25
126 97 0.25
126 100 0.25
126 159 0.25
127 123 0.25
127 124 0.25
127 127 0.25
127 189 0.25
128 128 0.25
128 129 0.25
128 131 0.25
128 194 0.25
129 81 0.25
129 82 0.25
129 85 0.25
129 141 0.25
130 113 0.25
130 114 0.25
130 130 0.5
130 178 0.25
131 114 0.25
131 115 0.25
131 131 0.25
131 179 0.25
132 116 0.25
132 117 0.25
132 132 0.25
132 181 0.25
133 132 0.25
133 133 0.25
133 148 0.25
133 197 0.25
134 74 0.25
134 75 0.25
134 77 0.25
134 134 0.25
135 134 0.25
135 135 0.25
135 137 0.25
135 200 0.25
136 136 0.25
136 139 0.25
136 153 0.25
136 202 0.25
137 90 0.25
137 93 0.25
137 105 0.25
137 152 0.25
138 137 0.25
138 138 0.25
138 141 0.25
138 204 0.25
139 110 0.25
139 126 0.25
139 174 0.25
140 136 0.25
140 137 0.25
140 140 0.25
140 203 0.25
141 140 0.25
141 141 0.25
141 144 0.25
141 207 0.25
142 125 0.25
142 129 0.25
142 142 0.25
142 191 0.25
143 126 0.25
143 127 0.25
143 143 0.25
143 192 0.25
144 110 0.25
144 111 0.25
144 113 0.25
144 175 0.25
145 144 0.25
145 145 0.25
145 146 0.25
145 210 0.25
146 130 0.25
146 131 0.25
146 146 0.5
146 195 0.25
147 131 0.25
147 147 0.5
147 196 0.25
148 124 0.25
148 125 0.25
148 128 0.25
148 190 0.25
149 132 0.25
149 134 0.25
149 149 0.25
149 198 0.25
150 148 0.25
150 149 0.25
150 150 0.25
150 213 0.25
151 94 0.25
151 95 0.25
151 98 0.25
151 157 0.25
152 135 0.25
152 138 0.25
152 152 0.25
152 201 0.25
153 141 0.25
153 142 0.25
153 145 0.25
153 208 0.25
154 150 0.25
154 151 0.25
154 154 0.25
154 216 0.25
155 151 0.25
155 152 0.25
155 155 0.25
155 217 0.25
156 138 0.25
156 142 0.25
156 156 0.25
156 205 0.25
157 153 0.25
157 154 0.25
157 157 0.25
157 219 0.25
158 154 0.25
158 155 0.25
158 158 0.25
158 220 0.25
159 155 0.25
159 156 0.25
159 159 0.25
159 221 0.25
160 143 0.25
160 144 0.25
160 160 0.25
160 209 0.25
161 160 0.25
161 161 0.25
161 178 0.25
161 226 0.25
162 159 0.25
162 162 0.25
162 177 0.25
162 225 0.25
163 146 0.25
163 147 0.25
163 163 0.5
163 212 0.25
164 148 0.25
164 164 0.5
165 165 0.25
165 167 0.25
165 182 0.25
165 229 0.25
166 149 0.25
166 151 0.25
166 166 0.25
166 214 0.25
167 119 0.25
167 120 0.25
167 123 0.25
167 185 0.25
168 103 0.25
168 104 0.25
168 107 0.25
168 168 0.25
169 168 0.25
169 169 0.25
169 172 0.25
169 233 0.25
170 152 0.25
170 156 0.25
170 170 0.5
170 218 0.25
171 167 0.25
171 168 0.25
171 171 0.25
171 232 0.25
172 171 0.25
172 172 0.25
172 175 0.25
172 236 0.25
173 169 0.25
173 170 0.25
173 173 0.25
173 234 0.25
174 157 0.25
174 174 0.25
174 222 0.25
175 172 0.25
175 173 0.25
175 176 0.25
175 237 0.25
176 175 0.25
176 176 0.25
176 178 0.25
176 240 0.25
177 112 0.25
177 115 0.25
177 129 0.25
177 177 0.25
178 158 0.25
178 159 0.25
178 161 0.25
178 224 0.25
179 176 0.25
179 177 0.25
179 179 0.25
179 241 0.25
180 163 0.25
180 180 0.75
180 228 0.25
181 133 0.25
181 134 0.25
181 136 0.25
181 199 0.25
182 165 0.25
182 166 0.25
182 168 0.25
182 230 0.25
183 181 0.25
183 183 0.25
183 198 0.25
184 166 0.25
184 169 0.25
184 184 0.25
184 231 0.25
185 182 0.25
185 183 0.25
185 185 0.25
185 244 0.25
186 183 0.25
186 184 0.25
186 186 0.25
186 245 0.25
187 121 0.25
187 122 0.25
187 125 0.25
187 187 0.25
188 171 0.25
188 174 0.25
188 188 0.25
188 235 0.25
189 185 0.25
189 186 0.25
189 189 0.25
189 248 0.25
190 186 0.25
190 187 0.25
190 190 0.25
190 249 0.25
191 173 0.25
191 177 0.25
191 191 0.25
191 238 0.25
192 174 0.25
192 175 0.25
192 192 0.25
192 239 0.25
193 127 0.25
193 128 0.25
193 130 0.25
193 193 0.25
194 193 0.25
194 194 0.25
194 195 0.25
194 255 0.25
195 178 0.25
195 179 0.25
195 195 0.25
195 242 0.25
196 194 0.25
196 196 0.25
196 211 0.25
196 256 0.25
197 181 0.25
197 182 0.25
197 197 0.5
198 189 0.25
198 190 0.25
198 193 0.25
198 252 0.25
199 197 0.25
199 198 0.25
199 199 0.25
199 213 0.25
200 190 0.25
200 191 0.25
200 194 0.25
200 253 0.25
201 139 0.25
201 140 0.25
201 143 0.25
201 206 0.25
202 200 0.25
202 201 0.25
202 204 0.25
202 260 0.25
203 202 0.25
203 203 0.25
203 206 0.25
203 262 0.25
204 157 0.25
204 158 0.25
204 160 0.25
204 223 0.25
205 201 0.25
205 205 0.25
205 218 0.5
205 261 0.25
206 187 0.25
206 191 0.25
206 205 0.25
206 250 0.25
207 206 0.25
207 207 0.25
207 209 0.25
207 266 0.25
208 204 0.25
208 205 0.25
208 208 0.25
208 264 0.25
209 192 0.25
209 193 0.25
209 209 0.25
209 254 0.25
210 207 0.25
210 208 0.25
210 210 0.25
210 267 0.25
211 145 0.25
211 147 0.25
211 162 0.25
211 211 0.25
212 195 0.25
212 196 0.25
212 212 0.25
212 257 0.25
213 199 0.25
213 200 0.25
213 203 0.25
213 259 0.25
214 161 0.25
214 162 0.25
214 163 0.25
214 227 0.25
215 199 0.25
215 202 0.25
215 215 0.25
215 258 0.25
216 215 0.25
216 216 0.25
216 219 0.25
216 272 0.25
217 214 0.25
217 217 0.25
217 231 0.25
218 203 0.25
218 204 0.25
218 207 0.25
218 263 0.25
219 150 0.25
219 153 0.25
219 167 0.25
219 215 0.25
220 216 0.25
220 217 0.25
220 220 0.25
220 273 0.25
221 217 0.25
221 218 0.25
221 221 0.25
221 274 0.25
222 206 0.25
222 222 0.25
222 265 0.25
223 219 0.25
223 220 0.25
223 223 0.25
223 276 0.25
224 220 0.25
224 221 0.25
224 224 0.25
224 277 0.25
225 208 0.25
225 211 0.25
225 225 0.25
225 268 0.25
226 209 0.25
226 210 0.25
226 226 0.25
226 269 0.25
227 226 0.25
227 227 0.25
227 242 0.25
227 282 0.25
228 212 0.25
228 228 0.5
228 271 0.25
229 213 0.25
229 215 0.25
229 229 0.5
230 213 0.25
230 214 0.25
230 216 0.25
230 230 0.25
231 210 0.25
231 211 0.25
231 212 0.25
231 270 0.25
232 229 0.25
232 230 0.25
232 232 0.25
232 244 0.25
233 230 0.25
233 231 0.25
233 233 0.25
233 245 0.25
234 231 0.25
234 234 0.25
234 246 0.25
235 185 0.25
235 188 0.25
235 202 0.25
235 247 0.25
236 232 0.25
236 233 0.25
236 236 0.25
236 285 0.25
237 233 0.25
237 234 0.25
237 237 0.25
237 286 0.25
238 221 0.25
238 225 0.25
238 238 0.25
238 278 0.25
239 235 0.25
239 236 0.25
239 239 0.25
239 288 0.25
240 239 0.25
240 240 0.25
240 254 0.25
240 291 0.25
241 237 0.25
241 238 0.25
241 241 0.25
241 290 0.25
242 240 0.25
242 241 0.25
242 242 0.25
242 292 0.25
243 227 0.25
243 228 0.25
243 243 0.25
243 283 0.25
244 232 0.25
244 235 0.25
244 247 0.25
244 284 0.25
245 236 0.25
245 237 0.25
245 240 0.25
245 289 0.25
246 184 0.25
246 187 0.25
246 201 0.25
246 246 0.25
247 244 0.25
247 247 0.25
247 258 0.5
248 244 0.25
248 245 0.25
248 248 0.25
248 259 0.25
249 245 0.25
249 246 0.25
249 249 0.25
249 260 0.25
250 246 0.25
250 250 0.25
250 261 0.5
251 188 0.25
251 189 0.25
251 192 0.25
251 251 0.25
252 248 0.25
252 249 0.25
252 252 0.25
252 296 0.25
253 249 0.25
253 250 0.25
253 253 0.25
253 297 0.25
254 224 0.25
254 225 0.25
254 227 0.25
254 281 0.25
255 252 0.25
255 253 0.25
255 255 0.25
255 300 0.25
256 241 0.25
256 243 0.25
256 256 0.25
256 293 0.25
257 255 0.25
257 256 0.25
257 257 0.25
257 303 0.25
258 234 0.25
258 238 0.25
258 250 0.25
258 287 0.25
259 179 0.25
259 180 0.25
259 196 0.25
259 243 0.25
260 247 0.25
260 248 0.25
260 251 0.25
260 295 0.25
261 251 0.25
261 252 0.25
261 254 0.25
261 299 0.25
262 198 0.25
262 200 0.25
262 214 0.25
263 262 0.25
263 263 0.25
263 266 0.25
263 306 0.25
264 263 0.25
264 264 0.25
264 267 0.25
264 307 0.25
265 262 0.25
265 265 0.25
265 275 0.25
265 305 0.25
266 265 0.25
266 266 0.25
266 279 0.25
266 309 0.25
267 260 0.25
267 261 0.25
267 264 0.25
267 274 0.25
268 253 0.25
268 256 0.25
268 268 0.25
268 301 0.25
269 254 0.25
269 255 0.25
269 269 0.25
269 302 0.25
270 269 0.25
270 270 0.25
270 282 0.25
270 312 0.25
271 257 0.25
271 271 0.5
271 304 0.25
272 258 0.25
272 259 0.25
272 262 0.25
272 272 0.25
273 259 0.25
273 260 0.25
273 263 0.25
273 273 0.25
274 266 0.25
274 267 0.25
274 269 0.25
274 310 0.25
275 219 0.25
275 222 0.25
275 235 0.25
275 275 0.25
276 272 0.25
276 273 0.25
276 276 0.25
276 285 0.25
277 223 0.25
277 224 0.25
277 226 0.25
277 280 0.25
278 277 0.25
278 278 0.25
278 281 0.25
278 316 0.25
279 275 0.25
279 276 0.25
279 279 0.25
279 314 0.25
280 276 0.25
280 277 0.25
280 280 0.25
280 315 0.25
281 280 0.25
281 281 0.25
281 282 0.25
281 318 0.25
282 264 0.25
282 268 0.25
282 278 0.25
282 308 0.25
283 282 0.25
283 283 0.25
283 294 0.25
283 320 0.25
284 272 0.25
284 275 0.25
284 284 0.5
285 284 0.25
285 285 0.25
285 288 0.25
285 295 0.25
286 273 0.25
286 274 0.25
286 277 0.25
286 286 0.25
287 274 0.25
287 278 0.25
287 287 0.5
288 285 0.25
288 286 0.25
288 289 0.25
288 296 0.25
289 288 0.25
289 289 0.25
289 291 0.25
289 322 0.25
290 286 0.25
290 287 0.25
290 290 0.25
290 297 0.25
291 222 0.25
291 223 0.25
291 239 0.25
291 279 0.25
292 291 0.25
292 292 0.25
292 302 0.25
292 325 0.25
293 281 0.25
293 283 0.25
293 293 0.25
293 319 0.25
294 242 0.25
294 243 0.25
294 257 0.25
294 294 0.25
295 295 0.25
295 298 0.25
295 305 0.5
296 295 0.25
296 296 0.25
296 299 0.25
296 306 0.25
297 289 0.25
297 290 0.25
297 292 0.25
297 323 0.25
298 288 0.25
298 298 0.25
298 321 0.25
299 296 0.25
299 297 0.25
299 300 0.25
299 307 0.25
300 299 0.25
300 300 0.25
300 302 0.25
300 329 0.25
301 290 0.25
301 293 0.25
301 301 0.25
301 324 0.25
302 279 0.25
302 280 0.25
302 291 0.25
302 317 0.25
303 300 0.25
303 301 0.25
303 303 0.25
303 330 0.25
304 294 0.25
304 304 0.5
304 327 0.25
305 251 0.25
305 265 0.25
305 298 0.25
306 267 0.25
306 268 0.25
306 270 0.25
306 311 0.25
307 306 0.25
307 307 0.25
307 310 0.25
307 315 0.25
308 297 0.25
308 301 0.25
308 308 0.5
309 305 0.25
309 306 0.25
309 309 0.25
309 314 0.25
310 309 0.25
310 310 0.25
310 317 0.25
310 333 0.25
311 307 0.25
311 308 0.25
311 311 0.25
311 316 0.25
312 310 0.25
312 311 0.25
312 312 0.25
312 334 0.25
313 303 0.25
313 304 0.25
313 313 0.25
313 332 0.25
314 314 0.25
314 321 0.5
315 302 0.25
315 303 0.25
315 312 0.25
315 331 0.25
316 315 0.25
316 316 0.25
316 318 0.25
316 323 0.25
317 314 0.25
317 315 0.25
317 317 0.25
317 322 0.25
318 317 0.25
318 318 0.25
318 325 0.25
318 337 0.25
319 316 0.25
319 319 0.25
319 324 0.5
320 318 0.25
320 319 0.25
320 320 0.25
320 338 0.25
321 270 0.25
321 271 0.25
321 283 0.25
321 313 0.25
322 321 0.25
322 322 0.25
322 328 0.5
323 322 0.25
323 323 0.25
323 325 0.25
323 329 0.25
324 311 0.25
324 313 0.25
324 319 0.25
324 335 0.25
325 292 0.25
325 293 0.25
325 294 0.25
325 326 0.25
326 325 0.25
326 326 0.25
326 331 0.25
326 340 0.25
327 320 0.25
327 327 0.5
327 339 0.25
328 323 0.25
328 324 0.25
328 326 0.25
328 330 0.25
329 328 0.25
329 329 0.25
329 333 0.5
330 329 0.25
330 330 0.25
330 331 0.25
330 334 0.25
331 298 0.25
331 299 0.25
331 309 0.25
331 328 0.25
332 312 0.25
332 313 0.25
332 320 0.25
332 336 0.25
333 164 0.25
333 165 0.25
333 181 0.25
334 330 0.25
334 332 0.25
334 335 0.5
335 334 0.25
335 335 0.25
335 336 0.25
335 338 0.25
336 331 0.25
336 332 0.25
336 336 0.25
336 342 0.25
337 333 0.25
337 334 0.25
337 337 0.5
338 337 0.25
338 338 0.25
338 340 0.5
339 336 0.25
339 339 0.5
339 343 0.25
340 338 0.25
340 339 0.25
340 341 0.5
341 340 0.25
341 341 0.25
341 342 0.5
342 326 0.25
342 327 0.25
342 332 0.25
342 341 0.25
343 342 0.25
343 343 0.75
