%%MatrixMarket matrix coordinate real general
% migrated from Universal blas/matrices/pores_1.hpp (universal#1210)
30 30 180
1 1 -948.1011
1 2 23349.69
1 3 4.731273
1 11 946.2546
2 1 -7178502.0
2 2 -24613410.0
2 3 35670.21
2 11 7134042.0
3 1 4.731273
3 2 -3005.165
3 3 -3120.861
3 4 29953.99
3 5 15.52208
3 13 3104.415
4 1 35742.62
4 2 12934350.0
4 3 -3250082.0
4 4 -10035130.0
4 5 15956.34
4 13 3191268.0
5 3 15.52208
5 4 -7865.886
5 5 -5972.083
5 6 17473.26
5 7 29.66127
5 15 5932.254
6 3 16287.8
6 4 6333090.0
6 5 -1639583.0
6 6 -4118217.0
6 7 8048.145
6 15 1609629.0
7 5 29.66127
7 6 -270.7601
7 7 -5947.546
7 8 11.78839
7 9 29.41995
7 17 5883.99
8 5 8700.092
8 6 -73466.72
8 7 -1374064.0
8 8 -6047.227
8 9 6790.958
8 17 1358192.0
9 7 29.41995
9 9 -5971.357
9 10 18213.82
9 19 5949.182
10 7 6790.958
10 8 707.3032
10 9 -1332369.0
10 10 -2505985.0
10 19 1318253.0
11 1 946.2546
11 2 -3680.715
11 11 -2780.744
11 12 25797.3
11 13 4.406054
11 21 1835.856
12 1 7134131.0
12 2 6149543.0
12 11 -7718210.0
12 12 -9240718.0
12 13 1380.783
12 21 575326.2
13 3 3104.415
13 4 -5228.438
13 11 4.406054
13 12 -115.8896
13 13 -4784.86
13 14 18.13942
13 15 3.996338
13 23 1665.141
14 3 3191488.0
14 4 -1161033.0
14 11 1448.073
14 12 230273.8
14 13 -3580833.0
14 14 -8458.545
14 15 925.5855
14 23 385660.6
15 5 5932.254
15 6 -40.81764
15 13 3.996338
15 15 -7661.046
15 16 18.31619
15 17 4.113198
15 25 1713.833
16 5 1609727.0
16 6 -11075.26
16 13 925.5855
16 14 107.3862
16 15 -2001647.0
16 16 -8406.695
16 17 932.6557
16 25 388606.5
17 7 5883.99
17 15 4.113198
17 17 -7696.62
17 18 18.10488
17 19 4.313868
17 27 1797.445
18 7 1358192.0
18 8 77.96876
18 15 932.6557
18 16 106.7455
18 17 -1768227.0
18 18 -8286.897
18 19 975.8362
18 27 406598.4
19 9 5949.182
19 10 -249.6927
19 17 4.313868
19 19 -7803.448
19 20 27213.69
19 29 1860.864
20 9 1318942.0
20 10 -55328.32
20 17 975.8362
20 18 105.615
20 19 -1742395.0
20 20 -3786246.0
20 29 412629.0
21 11 1835.856
21 12 -686.5704
21 21 -1873.02
21 22 30.68987
21 23 25.51913
22 11 575724.9
22 12 712536.1
22 21 -583907.7
22 22 -14220.86
22 23 5892.593
23 13 1665.141
23 21 25.51913
23 23 -1728.231
23 24 31.03794
23 25 25.97929
24 13 385660.6
24 14 261.5808
24 21 5892.593
24 22 520.419
24 23 -400061.4
24 24 -14640.45
24 25 5883.178
25 15 1713.833
25 23 25.97929
25 25 -1778.573
25 26 30.61783
25 27 27.33472
26 15 388606.5
26 16 80.72318
26 23 5883.178
26 24 706.0881
26 25 -403257.3
26 26 -14459.35
26 27 6182.883
27 17 1797.445
27 25 27.33472
27 27 -1864.785
27 28 30.18415
27 29 28.73915
28 17 406598.4
28 18 51.70032
28 25 6182.883
28 26 710.156
28 27 -421829.6
28 28 -14268.96
28 29 6500.194
29 19 1860.864
29 20 -272.6859
29 27 28.73915
29 29 -1871.436
29 30 44912.53
30 19 413382.2
30 20 -60465.51
30 27 6500.194
30 28 714.9304
30 29 -436930.5
30 30 -6399179.0
