%%MatrixMarket matrix coordinate real general
% migrated from Universal blas/matrices/rump6x6ill.hpp (universal#1210)
6 6 36
1 1 6566.0
1 2 -5202.0
1 3 -4040.0
1 4 -5524.0
1 5 1420.0
1 6 6229.0
2 1 4104.0
2 2 7449.0
2 3 -2518.0
2 4 -4588.0
2 5 -8841.0
2 6 4040.0
3 1 5266.0
3 2 -4008.0
3 3 6803.0
3 4 -4702.0
3 5 1240.0
3 6 5060.0
4 1 -9306.0
4 2 7213.0
4 3 5723.0
4 4 7961.0
4 5 -1981.0
4 6 -8834.0
5 1 -3782.0
5 2 3840.0
5 3 2464.0
5 4 -8389.0
5 5 9781.0
5 6 -3334.0
6 1 -6903.0
6 2 5610.0
6 3 4306.0
6 4 5548.0
6 5 -1380.0
6 6 3539.0
