%%MatrixMarket matrix coordinate real general
% migrated from Universal blas/matrices/saylr1.hpp (universal#1210)
238 238 1128
1 1 -19.315
1 2 19.311
1 15 0.0044227
2 1 19.311
2 2 -38.64
2 3 19.311
2 16 0.017691
3 2 19.311
3 3 -38.693
3 4 19.311
3 17 0.070763
4 3 19.311
4 4 -38.905
4 5 19.311
4 18 0.28305
5 4 19.311
5 5 -39.755
5 6 19.311
5 19 1.1322
6 5 19.311
6 6 -43.156
6 7 19.311
6 20 4.5288
7 6 19.311
7 7 -56.756
7 8 19.311
7 21 18.115
8 7 19.311
8 8 -111.16
8 9 19.311
8 22 72.461
9 8 19.311
9 9 -328.77
9 10 19.311
9 23 289.84
10 9 19.311
10 10 -1199.2
10 11 19.31
10 24 1159.3
11 10 19.31
11 11 -4680.5
11 12 19.309
11 25 4636.9
12 11 19.309
12 12 -18586.0
12 13 11.06
12 26 18536.0
13 12 11.061
13 13 -75788.0
13 14 19.699
13 27 75682.0
14 13 19.722
14 14 -41574000.0
14 28 41574000.0
15 1 0.0044227
15 15 -1024.1
15 16 1023.0
15 29 1.1876
16 2 0.017691
16 15 1023.0
16 16 -2050.7
16 17 1023.0
16 30 4.7505
17 3 0.070763
17 16 1023.0
17 17 -2065.0
17 18 1023.0
17 31 19.002
18 4 0.28305
18 17 1023.0
18 18 -2122.2
18 19 1023.0
18 32 76.008
19 5 1.1322
19 18 1023.0
19 19 -2351.1
19 20 1023.0
19 33 304.03
20 6 4.5289
20 19 1023.0
20 20 -3266.6
20 21 1023.0
20 34 1216.1
21 7 18.115
21 20 1023.0
21 21 -6928.6
21 22 1022.9
21 35 4864.5
22 8 72.462
22 21 1022.9
22 22 -21577.0
22 23 1023.0
22 36 19458.0
23 9 289.85
23 22 1023.0
23 23 -80170.0
23 24 1022.9
23 37 77832.0
24 10 1159.3
24 23 1022.9
24 24 -314740.0
24 25 1022.9
24 38 311520.0
25 11 4637.0
25 24 1022.9
25 25 -1252700.0
25 26 1022.9
25 39 1246000.0
26 12 18536.0
26 25 1022.9
26 26 -5000500.0
26 27 347.1
26 40 4980500.0
27 13 75689.0
27 26 347.24
27 27 -27150000.0
27 28 1389.1
27 41 27072000.0
28 14 41579000.0
28 27 1390.8
28 28 -90850000.0
28 42 49269000.0
29 15 1.1876
29 29 -198.42
29 30 196.12
29 43 1.1082
30 16 4.7506
30 29 196.12
30 30 -401.43
30 31 196.12
30 44 4.433
31 17 19.002
31 30 196.12
31 31 -428.98
31 32 196.12
31 45 17.732
32 18 76.009
32 31 196.12
32 32 -539.18
32 33 196.12
32 46 70.928
33 19 304.04
33 32 196.12
33 33 -979.99
33 34 196.12
33 47 283.71
34 20 1216.1
34 33 196.12
34 34 -2743.2
34 35 196.12
34 48 1134.8
35 21 4864.6
35 34 196.12
35 35 -9796.2
35 36 196.12
35 49 4539.4
36 22 19458.0
36 35 196.12
36 36 -38008.0
36 37 196.12
36 50 18158.0
37 23 77833.0
37 36 196.12
37 37 -150860.0
37 38 196.12
37 51 72630.0
38 24 311530.0
38 37 196.12
38 38 -602430.0
38 39 196.12
38 52 290510.0
39 25 1246000.0
39 38 196.12
39 39 -2408300.0
39 40 196.1
39 53 1161900.0
40 26 4980500.0
40 39 196.11
40 40 -9602500.0
40 41 199.77
40 54 4621500.0
41 27 27075000.0
41 40 199.86
41 41 -52340000.0
41 42 266.51
41 55 25264000.0
42 28 49273000.0
42 41 266.83
42 42 -202340000.0
42 56 153060000.0
43 29 1.1083
43 43 -61.428
43 44 59.668
43 57 0.65184
44 30 4.433
44 43 59.668
44 44 -126.38
44 45 59.667
44 58 2.6073
45 31 17.732
45 44 59.667
45 45 -147.5
45 46 59.667
45 59 10.429
46 32 70.928
46 45 59.667
46 46 -231.98
46 47 59.667
46 60 41.718
47 33 283.71
47 46 59.667
47 47 -569.92
47 48 59.667
47 61 166.87
48 34 1134.8
48 47 59.667
48 48 -1921.7
48 49 59.668
48 62 667.48
49 35 4539.4
49 48 59.668
49 49 -7328.7
49 50 59.667
49 63 2669.9
50 36 18158.0
50 49 59.667
50 50 -28957.0
50 51 59.668
50 64 10680.0
51 37 72630.0
51 50 59.668
51 51 -115470.0
51 52 59.667
51 65 42719.0
52 38 290510.0
52 51 59.667
52 52 -461440.0
52 53 59.645
52 66 170810.0
53 39 1161900.0
53 52 59.645
53 53 -1844800.0
53 54 59.601
53 67 682720.0
54 40 4621500.0
54 53 59.602
54 54 -7336000.0
54 55 60.8
54 68 2714300.0
55 41 25265000.0
55 54 60.828
55 55 -40130000.0
55 56 81.113
55 69 14865000.0
56 42 153070000.0
56 55 81.211
56 56 -306140000.0
56 70 153070000.0
57 43 0.65184
57 57 -60.995
57 58 59.561
57 71 0.78232
58 44 2.6074
58 57 59.561
58 58 -124.86
58 59 59.561
58 72 3.1293
59 45 10.429
59 58 59.561
59 59 -142.07
59 60 59.561
59 73 12.517
60 46 41.718
60 59 59.561
60 60 -210.91
60 61 59.561
60 74 50.069
61 47 166.87
61 60 59.561
61 61 -486.27
61 62 59.561
61 75 200.27
62 48 667.48
62 61 59.561
62 62 -1587.7
62 63 59.561
62 76 801.1
63 49 2669.9
63 62 59.561
63 63 -5993.5
63 64 59.561
63 77 3204.4
64 50 10680.0
64 63 59.561
64 64 -23616.0
64 65 59.561
64 78 12818.0
65 51 42719.0
65 64 59.561
65 65 -94109.0
65 66 59.561
65 79 51270.0
66 52 170810.0
66 65 59.561
66 66 -375930.0
66 67 59.539
66 80 205000.0
67 53 682720.0
67 66 59.539
67 67 -1502200.0
67 68 59.495
67 81 819390.0
68 54 2714300.0
68 67 59.496
68 68 -5972100.0
68 69 60.802
68 82 3257700.0
69 55 14866000.0
69 68 60.83
69 69 -32739000.0
69 70 81.116
69 83 17873000.0
70 56 153070000.0
70 69 81.214
70 70 -216740000.0
70 84 63668000.0
71 57 0.78233
71 71 -668.82
71 72 668.02
71 85 0.010723
72 58 3.1293
72 71 668.02
72 72 -1339.2
72 73 668.02
72 86 0.042892
73 59 12.517
73 72 668.02
73 73 -1348.7
73 74 668.02
73 87 0.17157
74 60 50.069
74 73 668.02
74 74 -1386.8
74 75 668.02
74 88 0.68626
75 61 200.28
75 74 668.02
75 75 -1539.1
75 76 668.02
75 89 2.7451
76 62 801.1
76 75 668.02
76 76 -2148.2
76 77 668.03
76 90 10.98
77 63 3204.4
77 76 668.03
77 77 -4584.4
77 78 668.02
77 91 43.921
78 64 12818.0
78 77 668.02
78 78 -14330.0
78 79 668.03
78 92 175.68
79 65 51271.0
79 78 668.03
79 79 -53311.0
79 80 668.02
79 93 702.73
80 66 205000.0
80 79 668.02
80 80 -209150.0
80 81 667.77
80 94 2809.9
81 67 819400.0
81 80 667.77
81 81 -831980.0
81 82 667.29
81 95 11231.0
82 68 3257700.0
82 81 667.29
82 82 -3302800.0
82 83 684.92
82 96 43717.0
83 69 17875000.0
83 82 685.26
83 83 -18122000.0
83 84 913.79
83 97 246050.0
84 70 63673000.0
84 83 914.88
84 84 -114170000.0
84 98 50492000.0
85 71 0.010723
85 85 -73.415
85 86 73.396
85 99 0.0079712
86 72 0.042892
86 85 73.396
86 86 -146.87
86 87 73.396
86 100 0.031885
87 73 0.17157
87 86 73.396
87 87 -147.09
87 88 73.396
87 101 0.12754
88 74 0.68627
88 87 73.396
88 88 -147.99
88 89 73.396
88 102 0.51016
89 75 2.7451
89 88 73.396
89 89 -151.58
89 90 73.396
89 103 2.0406
90 76 10.98
90 89 73.396
90 90 -165.94
90 91 73.396
90 104 8.1625
91 77 43.921
91 90 73.396
91 91 -223.4
91 92 73.395
91 105 32.65
92 78 175.69
92 91 73.395
92 92 -453.21
92 93 73.396
92 106 130.6
93 79 702.74
93 92 73.396
93 93 -1372.5
93 94 73.396
93 107 522.4
94 80 2809.9
94 93 73.396
94 94 -5043.1
94 95 73.214
94 108 2084.5
95 81 11231.0
95 94 73.214
95 95 -19682.0
95 96 72.861
95 109 8296.3
96 82 43718.0
96 95 72.862
96 96 -75025.0
96 97 76.514
96 110 31123.0
97 83 246070.0
97 96 76.553
97 97 -432290.0
97 98 102.08
97 111 185980.0
98 84 50497000.0
98 97 102.2
98 98 -142750000.0
98 112 92255000.0
99 85 0.0079713
99 99 -18.212
99 100 18.188
99 113 0.016022
100 86 0.031885
100 99 18.188
100 100 -36.471
100 101 18.188
100 114 0.064087
101 87 0.12754
101 100 18.188
101 101 -36.759
101 102 18.188
101 115 0.25635
102 88 0.51016
102 101 18.188
102 102 -37.911
102 103 18.188
102 116 1.0254
103 89 2.0406
103 102 18.188
103 103 -42.518
103 104 18.188
103 117 4.1015
104 90 8.1626
104 103 18.188
104 104 -60.947
104 105 18.188
104 118 16.406
105 91 32.65
105 104 18.188
105 105 -134.66
105 106 18.187
105 119 65.625
106 92 130.6
106 105 18.187
106 106 -429.53
106 107 18.188
106 120 262.5
107 93 522.4
107 106 18.188
107 107 -1609.0
107 108 18.188
107 121 1050.0
108 94 2084.5
108 107 18.188
108 108 -6305.7
108 109 17.983
108 122 4184.2
109 95 8296.3
109 108 17.983
109 109 -24946.0
109 110 17.992
109 123 16611.0
110 96 31124.0
110 109 17.992
110 110 -91145.0
110 111 19.38
110 124 59971.0
111 97 185990.0
111 110 19.391
111 111 -568100.0
111 112 25.853
111 125 382040.0
112 98 92259000.0
112 111 25.884
112 112 -239120000.0
112 126 146860000.0
113 99 0.016022
113 113 -17.169
113 114 17.139
113 127 0.013402
114 100 0.064087
114 113 17.139
114 114 -34.396
114 115 17.139
114 128 0.05361
115 101 0.25635
115 114 17.139
115 115 -34.75
115 116 17.139
115 129 0.21444
116 102 1.0254
116 115 17.139
116 116 -36.162
116 117 17.139
116 130 0.85776
117 103 4.1016
117 116 17.139
117 117 -41.812
117 118 17.139
117 131 3.431
118 104 16.406
118 117 17.139
118 118 -64.412
118 119 17.139
118 132 13.724
119 105 65.625
119 118 17.139
119 119 -154.81
119 120 17.139
119 133 54.896
120 106 262.5
120 119 17.139
120 120 -516.41
120 121 17.139
120 134 219.59
121 107 1050.0
121 120 17.139
121 121 -1962.8
121 122 17.139
121 135 878.34
122 108 4184.3
122 121 17.139
122 122 -7719.1
122 123 16.943
122 136 3500.0
123 109 16611.0
123 122 16.943
123 123 -29996.0
123 124 16.965
123 137 13348.0
124 110 59971.0
124 123 16.965
124 124 -108240.0
124 125 18.61
124 138 48224.0
125 111 382050.0
125 124 18.62
125 125 -707700.0
125 126 24.82
125 139 325580.0
126 112 146870000.0
126 125 24.85
126 126 -272020000.0
126 140 125160000.0
127 113 0.013402
127 127 -23.312
127 128 23.288
127 141 0.010209
128 114 0.05361
128 127 23.288
128 128 -46.67
128 129 23.288
128 142 0.040838
129 115 0.21444
129 128 23.288
129 129 -46.954
129 130 23.288
129 143 0.16335
130 116 0.85776
130 129 23.288
130 130 -48.087
130 131 23.288
130 144 0.6534
131 117 3.431
131 130 23.288
131 131 -52.622
131 132 23.288
131 145 2.6136
132 118 13.724
132 131 23.288
132 132 -70.759
132 133 23.288
132 146 10.454
133 119 54.897
133 132 23.288
133 133 -143.31
133 134 23.288
133 147 41.818
134 120 219.59
134 133 23.288
134 134 -433.5
134 135 23.288
134 148 167.27
135 121 878.35
135 134 23.288
135 135 -1594.3
135 136 23.289
135 149 669.08
136 122 3500.0
136 135 23.289
136 136 -6201.5
136 137 22.727
136 150 2654.3
137 123 13348.0
137 136 22.727
137 137 -23849.0
137 138 22.786
137 151 10451.0
138 124 48224.0
138 137 22.786
138 138 -82693.0
138 139 25.988
138 152 34402.0
139 125 325590.0
139 138 26.002
139 139 -580400.0
139 140 34.646
139 153 254720.0
140 126 125160000.0
140 139 34.688
140 140 -223080000.0
140 154 97916000.0
141 127 0.010209
141 141 -26.199
141 142 26.172
141 155 0.017566
142 128 0.040838
142 141 26.172
142 142 -52.454
142 143 26.171
142 156 0.070262
143 129 0.16335
143 142 26.171
143 143 -52.787
143 144 26.171
143 157 0.28105
144 130 0.65341
144 143 26.171
144 144 -54.121
144 145 26.172
144 158 1.1242
145 131 2.6136
145 144 26.172
145 145 -59.455
145 146 26.171
145 159 4.4968
146 132 10.454
146 145 26.171
146 146 -80.79
146 147 26.172
146 160 17.987
147 133 41.818
147 146 26.172
147 147 -166.13
147 148 26.171
147 161 71.948
148 134 167.27
148 147 26.171
148 148 -507.49
148 149 26.172
148 162 287.79
149 135 669.09
149 148 26.172
149 149 -1872.9
149 150 26.173
149 163 1151.2
150 136 2654.3
150 149 26.173
150 150 -7278.3
150 151 25.355
150 164 4571.1
151 137 10451.0
151 150 25.355
151 151 -28384.0
151 152 25.518
151 165 17877.0
152 138 34403.0
152 151 25.518
152 152 -91977.0
152 153 31.065
152 166 57497.0
153 139 254730.0
153 152 31.083
153 153 -720410.0
153 154 41.371
153 167 465570.0
154 140 97921000.0
154 153 41.421
154 154 -183600000.0
154 168 85682000.0
155 141 0.017566
155 155 -205.25
155 156 205.14
155 169 0.10188
156 142 0.070262
156 155 205.14
156 156 -410.75
156 157 205.13
156 170 0.40752
157 143 0.28105
157 156 205.13
157 157 -412.18
157 158 205.13
157 171 1.6301
158 144 1.1242
158 157 205.13
158 158 -417.91
158 159 205.13
158 172 6.5203
159 145 4.4968
159 158 205.13
159 159 -440.85
159 160 205.13
159 173 26.081
160 146 17.987
160 159 205.13
160 160 -532.59
160 161 205.14
160 174 104.32
161 147 71.949
161 160 205.14
161 161 -899.55
161 162 205.13
161 175 417.3
162 148 287.79
162 161 205.13
162 162 -2367.4
162 163 205.14
162 176 1669.2
163 149 1151.2
163 162 205.14
163 163 -8238.8
163 164 205.19
163 177 6676.8
164 150 4571.2
164 163 205.19
164 164 -31292.0
164 165 194.13
164 178 26319.0
165 151 17877.0
165 164 194.13
165 165 -119900.0
165 166 207.83
165 179 101610.0
166 152 57497.0
166 165 207.83
166 166 -628410.0
166 167 274.21
166 180 570410.0
167 153 465600.0
167 166 274.37
167 167 -3458000.0
167 168 359.55
167 181 2991700.0
168 154 85686000.0
168 167 359.99
168 168 -165660000.0
168 182 79974000.0
169 155 0.10188
169 169 -6.4083
169 170 6.2616
169 183 0.044811
170 156 0.40752
170 169 6.2616
170 170 -13.11
170 171 6.2616
170 184 0.17924
171 157 1.6301
171 170 6.2616
171 171 -14.87
171 172 6.2616
171 185 0.71697
172 158 6.5203
172 171 6.2616
172 172 -21.912
172 173 6.2616
172 186 2.8679
173 159 26.081
173 172 6.2616
173 173 -50.077
173 174 6.2616
173 187 11.472
174 160 104.33
174 173 6.2616
174 174 -162.74
174 175 6.2617
174 188 45.886
175 161 417.3
175 174 6.2617
175 175 -613.39
175 176 6.2616
175 189 183.54
176 162 1669.2
176 175 6.2616
176 176 -2416.0
176 177 6.2617
176 190 734.18
177 163 6676.8
177 176 6.2617
177 177 -9626.3
177 178 6.2676
177 191 2936.7
178 164 26319.0
178 177 6.2676
178 178 -38082.0
178 179 5.7582
178 192 11749.0
179 165 101610.0
179 178 5.7582
179 179 -148650.0
179 180 9.8231
179 193 47017.0
180 166 570440.0
180 179 9.8239
180 180 -820700.0
180 181 13.071
180 194 250230.0
181 167 2991800.0
181 180 13.079
181 181 -3993500.0
181 182 13.08
181 195 1001600.0
182 168 79979000.0
182 181 13.096
182 182 -130320000.0
182 196 50337000.0
183 169 0.044813
183 183 -153.02
183 184 152.98
183 197 0.0017259
184 170 0.17925
184 183 152.98
184 184 -306.14
184 185 152.98
184 198 0.0069035
185 171 0.71701
185 184 152.98
185 185 -306.7
185 186 152.98
185 199 0.027614
186 172 2.8681
186 185 152.98
186 186 -308.93
186 187 152.98
186 200 0.11046
187 173 11.472
187 186 152.98
187 187 -317.87
187 188 152.98
187 201 0.44183
188 174 45.889
188 187 152.98
188 188 -353.62
188 189 152.98
188 202 1.7673
189 175 183.56
189 188 152.98
189 189 -496.6
189 190 152.98
189 203 7.0692
190 176 734.22
190 189 152.98
190 190 -1068.5
190 191 152.98
190 204 28.277
191 177 2936.9
191 190 152.98
191 191 -3356.3
191 192 152.98
191 205 113.11
192 178 11750.0
192 191 152.98
192 192 -12510.0
192 193 152.98
192 206 452.43
193 179 47020.0
193 192 152.98
193 193 -49142.0
193 194 152.98
193 207 1809.8
194 180 250260.0
194 193 153.0
194 194 -257830.0
194 195 153.01
194 208 7239.9
195 181 1001700.0
195 194 153.1
195 195 -1031100.0
195 196 153.12
195 209 28980.0
196 182 50342000.0
196 195 153.31
196 196 -87166000.0
196 210 36824000.0
197 183 0.0017261
197 197 -27.385
197 198 27.382
197 211 0.0012299
198 184 0.0069044
198 197 27.382
198 198 -54.775
198 199 27.382
198 212 0.0049197
199 185 0.027618
199 198 27.382
199 199 -54.811
199 200 27.382
199 213 0.019679
200 186 0.11047
200 199 27.382
200 200 -54.953
200 201 27.382
200 214 0.078714
201 187 0.44188
201 200 27.382
201 201 -55.521
201 202 27.382
201 215 0.31486
202 188 1.7675
202 201 27.382
202 202 -57.794
202 203 27.382
202 216 1.2594
203 189 7.0701
203 202 27.382
203 203 -66.887
203 204 27.381
203 217 5.0377
204 190 28.28
204 203 27.381
204 204 -103.26
204 205 27.382
204 218 20.151
205 191 113.12
205 204 27.382
205 205 -248.75
205 206 27.381
205 219 80.604
206 192 452.49
206 205 27.382
206 206 -830.72
206 207 27.382
206 220 322.42
207 193 1810.0
207 206 27.382
207 207 -3158.7
207 208 27.382
207 221 1289.7
208 194 7240.8
208 207 27.385
208 208 -12472.0
208 209 27.387
208 222 5159.4
209 195 28983.0
209 208 27.403
209 209 -49758.0
209 210 27.407
209 223 20652.0
210 196 36828000.0
210 209 27.44
210 210 -87893000.0
210 224 51064000.0
211 197 0.00123
211 211 -11.818
211 212 11.816
211 225 0.00071965
212 198 0.0049201
212 211 11.816
212 212 -23.639
212 213 11.816
212 226 0.0028786
213 199 0.01968
213 212 11.816
213 213 -23.662
213 214 11.816
213 227 0.011514
214 200 0.078722
214 213 11.816
214 214 -23.756
214 215 11.816
214 228 0.046058
215 201 0.31489
215 214 11.816
215 215 -24.131
215 216 11.816
215 229 0.18423
216 202 1.2595
216 215 11.816
216 216 -25.63
216 217 11.816
216 230 0.73693
217 203 5.0382
217 216 11.816
217 217 -31.624
217 218 11.816
217 231 2.9477
218 204 20.153
218 217 11.816
218 218 -55.603
218 219 11.816
218 232 11.791
219 205 80.611
219 218 11.816
219 219 -151.52
219 220 11.816
219 233 47.163
220 206 322.45
220 219 11.816
220 220 -535.19
220 221 11.816
220 234 188.65
221 207 1289.8
221 220 11.816
221 221 -2069.9
221 222 11.816
221 235 754.63
222 208 5159.8
222 221 11.817
222 222 -8209.6
222 223 11.818
222 236 3018.9
223 209 20654.0
223 222 11.825
223 223 -32791.0
223 224 11.827
223 237 12084.0
224 210 51069000.0
224 223 11.841
224 224 -80948000.0
224 238 29879000.0
225 211 0.00071977
225 225 -55.197
225 226 55.196
226 212 0.0028791
226 225 55.196
226 226 -110.39
226 227 55.196
227 213 0.011516
227 226 55.196
227 227 -110.4
227 228 55.196
228 214 0.046065
228 227 55.196
228 228 -110.44
228 229 55.196
229 215 0.18426
229 228 55.196
229 229 -110.58
229 230 55.196
230 216 0.73704
230 229 55.196
230 230 -111.14
230 231 55.196
231 217 2.9482
231 230 55.196
231 231 -113.37
231 232 55.195
232 218 11.793
232 231 55.195
232 232 -122.32
232 233 55.196
233 219 47.171
233 232 55.196
233 233 -158.09
233 234 55.195
234 220 188.68
234 233 55.196
234 234 -301.2
234 235 55.196
235 221 754.75
235 234 55.197
235 235 -873.65
235 236 55.197
236 222 3019.3
236 235 55.203
236 236 -3163.8
236 237 55.206
237 223 12086.0
237 236 55.24
237 237 -12333.0
237 238 55.248
238 224 29884000.0
238 237 55.315
238 238 -29912000.0
