%%MatrixMarket matrix coordinate real general
% migrated from Universal blas/matrices/steam1.hpp (universal#1210)
240 240 2248
1 1 -756541.8
1 2 -6.52404
1 3 -11.13212
1 127 653.3333
1 129 4.303218
1 130 172.8
1 132 6.828905
2 1 1.733302
2 2 -20918.46
2 3 -9.825757
2 129 1.115519
2 132 1.77025
3 1 172.8
3 3 6.828905
3 4 395.0592
3 6 15.61239
3 10 2613.333
3 12 17.21287
3 13 98.73883
3 15 3.902072
3 130 -3887930.0
3 131 -26.09616
3 132 -43.55624
4 4 -3026102.0
4 5 -26.09616
4 6 -41.9327
4 130 395.0592
4 132 15.61239
4 133 2613.333
4 135 17.21287
4 136 230.4564
4 138 9.107436
5 4 6.933206
5 5 -83673.83
5 6 -38.63012
5 132 4.047185
5 135 4.462076
5 138 2.360911
6 4 2618.308
6 5 26.09616
6 6 17.21287
6 10 790.1184
6 12 32.8962
6 19 1960.0
6 21 13.60071
6 22 460.9128
6 24 19.18988
6 133 -3904515.0
6 134 -27.51597
6 135 -82.89967
7 7 -977979.8
7 8 -7.352428
7 9 -21.99097
7 127 491.2447
7 128 6.878992
7 129 3.400178
7 139 435.5556
7 141 3.227135
7 142 345.6
7 144 15.36366
8 7 3.489356
8 8 -42109.79
8 9 -19.00166
8 128 1.706258
8 129 0.8366503
8 141 0.7437012
8 144 3.540595
9 7 345.6
9 9 15.36366
9 10 1964.979
9 11 27.51597
9 12 13.60071
9 19 790.1184
9 21 35.12475
9 31 1742.222
9 33 12.90854
9 34 197.4777
9 36 8.778877
9 142 -5635445.0
9 143 -29.40971
9 144 -85.77654
10 10 -5628172.0
10 11 -27.51597
10 12 -86.32056
10 127 345.6
10 129 14.38889
10 130 2618.308
10 131 26.09616
10 132 17.21287
10 133 790.1184
10 135 32.8962
10 142 1960.0
10 144 13.60071
10 145 197.4777
10 147 8.221887
11 10 13.90542
11 11 -167811.5
11 12 -76.98793
11 129 3.540541
11 131 6.819248
11 132 4.462076
11 135 8.094463
11 144 3.346601
11 147 2.023083
12 1 654.577
12 2 6.52404
12 3 4.303218
12 7 490.0
12 9 3.400178
12 10 345.6
12 12 14.38889
12 127 -976161.6
12 128 -6.878992
12 129 -22.09229
13 13 -5183996.0
13 14 -34.79737
13 15 -46.94447
13 130 98.73883
13 132 3.902072
13 136 409.6293
13 138 16.18819
13 145 3484.693
13 147 22.95214
13 148 98.73883
13 150 3.902072
14 13 9.244935
14 14 -111573.1
14 15 -49.18528
14 132 1.01153
14 138 4.196448
14 147 5.949859
14 150 1.01153
15 10 197.4777
15 12 8.221887
15 13 3491.327
15 14 34.79737
15 15 22.95214
15 22 819.2585
15 24 34.10943
15 34 2613.52
15 36 18.13558
15 37 197.4777
15 39 8.221887
15 145 -7504202.0
15 146 -36.69058
15 147 -91.64092
16 16 -5380043.0
16 17 -46.3998
16 18 -56.30852
16 136 325.2031
16 138 12.85174
16 151 4646.59
16 153 30.60504
16 154 325.2031
16 156 12.85174
17 16 12.32746
17 17 -148774.7
17 18 -63.95487
17 138 3.331544
17 153 7.933712
17 156 3.331544
18 16 4655.435
18 17 46.3998
18 18 30.60504
18 22 650.4062
18 24 27.07935
18 46 3484.942
18 48 24.1825
18 49 650.4062
18 51 27.07935
18 151 -6941428.0
18 152 -48.92426
18 153 -108.9462
19 19 -3911788.0
19 20 -29.40971
19 21 -82.1239
19 133 1964.979
19 134 27.51597
19 135 13.60071
19 142 790.1184
19 144 35.12475
19 157 1742.222
19 159 12.90854
19 160 460.9128
19 162 20.4899
20 19 13.95743
20 20 -168439.2
20 21 -74.66079
20 134 6.825032
20 135 3.346601
20 144 8.094586
20 159 2.974805
20 162 4.721949
21 19 460.9128
21 21 20.4899
21 22 5240.318
21 23 73.38116
21 24 36.27116
21 34 819.2585
21 36 36.42017
21 46 650.4062
21 48 28.91383
21 58 4646.258
21 60 34.42523
21 61 394.9553
21 63 17.55776
21 160 -15027700.0
21 161 -78.4315
21 162 -174.078
22 22 -15008300.0
22 23 -73.38116
22 24 -178.9979
22 133 460.9128
22 135 19.18988
22 136 6982.653
22 137 69.59474
22 138 45.90427
22 145 819.2585
22 147 34.10943
22 151 650.4062
22 153 27.07935
22 160 5227.04
22 162 36.27116
22 163 394.9553
22 165 16.44377
23 22 37.08376
23 23 -447529.4
23 24 -192.7158
23 135 4.721877
23 137 18.18596
23 138 11.89972
23 147 8.392992
23 153 6.663164
23 162 8.924908
23 165 4.046167
24 4 230.4564
24 6 9.107436
24 13 409.6293
24 15 16.18819
24 16 325.2031
24 18 12.85174
24 22 6969.387
24 24 45.90427
24 25 197.4777
24 27 7.804144
24 136 -10367940.0
24 137 -69.59474
24 138 -91.85579
25 25 -7775427.0
25 26 -52.19232
25 27 -69.97846
25 136 197.4777
25 138 7.804144
25 148 307.2
25 150 12.14028
25 154 197.4777
25 156 7.804144
25 163 5226.667
25 165 34.42575
25 166 197.4777
25 168 7.804144
26 25 13.86641
26 26 -167347.7
26 27 -73.66034
26 138 2.02306
26 150 3.147111
26 156 2.02306
26 165 8.924151
26 168 2.02306
27 22 394.9553
27 24 16.44377
27 25 5236.616
27 26 52.19232
27 27 34.42575
27 37 614.4
27 39 25.58025
27 49 394.9553
27 51 16.44377
27 61 3920.0
27 63 27.20143
27 64 394.9553
27 66 16.44377
27 163 -11255480.0
27 164 -55.03194
27 165 -136.5387
28 28 -1496895.0
28 30 -597.9258
28 139 393.2475
28 140 7.88611
28 141 3.111734
28 169 432.0
28 171 22.09843
29 28 4.400297
29 29 -53100.94
29 30 -22.48728
29 140 1.709976
29 141 0.6693432
29 171 4.425904
30 28 432.0
30 30 22.09843
30 31 1572.99
30 32 31.54444
30 33 12.44694
30 55 987.648
30 57 50.52193
30 70 246.8471
30 72 12.62716
30 169 -8141986.0
30 171 -97.69447
31 31 -7054440.0
31 32 -31.54444
31 33 -104.7275
31 139 432.0
31 141 20.57535
31 142 1747.206
31 143 29.40971
31 144 12.90854
31 157 987.648
31 159 47.03983
31 169 1568.0
31 171 12.44694
31 172 246.8471
31 174 11.75686
32 31 17.51992
32 32 -211429.9
32 33 -92.13128
32 141 4.425819
32 143 6.832055
32 144 2.974805
32 159 10.11841
32 171 2.677373
32 174 2.528936
33 19 1747.206
33 20 29.40971
33 21 12.90854
33 31 987.648
33 33 47.03983
33 55 1568.0
33 57 12.44694
33 58 576.1411
33 60 27.44052
33 157 -4899868.0
33 158 -31.54444
33 159 -99.83582
34 34 -7513900.0
34 35 -39.21575
34 36 -89.32612
34 142 197.4777
34 144 8.778877
34 145 2620.159
34 146 36.69058
34 147 18.13558
34 160 819.2585
34 162 36.42017
34 172 2323.129
34 174 17.21261
34 175 197.4777
34 177 8.778877
35 34 18.61123
35 35 -224601.6
35 36 -94.90425
35 144 2.023114
35 146 9.100692
35 147 4.462454
35 162 8.39312
35 174 3.96669
35 177 2.023114
36 31 246.8471
36 33 11.75686
36 34 2329.775
36 35 39.21575
36 36 17.21261
36 58 1024.073
36 60 48.77469
36 70 2090.816
36 72 16.5971
36 73 246.8471
36 75 11.75686
36 172 -9405887.0
36 173 -42.06226
36 174 -106.0981
37 37 -5627848.0
37 38 -27.51597
37 39 -72.83761
37 145 197.4777
37 147 8.221887
37 148 2618.308
37 149 26.09616
37 150 17.21287
37 163 614.4
37 165 25.58025
37 175 1960.0
37 177 13.60071
37 178 197.4777
37 180 8.221887
38 37 13.90542
38 38 -167811.5
38 39 -73.6703
38 147 2.023083
38 149 6.819248
38 150 4.462076
38 165 6.294295
38 177 3.346601
38 180 2.023083
39 34 197.4777
39 36 8.778877
39 37 1964.979
39 38 27.51597
39 39 13.60071
39 61 614.4
39 63 27.31318
39 73 1742.222
39 75 12.90854
39 76 197.4777
39 78 8.778877
39 175 -5635121.0
39 176 -29.40971
39 177 -71.38018
40 40 -5183996.0
40 41 -34.79737
40 42 -46.94447
40 148 98.73883
40 150 3.902072
40 166 409.6293
40 168 16.18819
40 178 3484.693
40 180 22.95214
40 181 98.73883
40 183 3.902072
41 40 9.244935
41 41 -111573.1
41 42 -49.18528
41 150 1.01153
41 168 4.196448
41 180 5.949859
41 183 1.01153
42 37 197.4777
42 39 8.221887
42 40 3491.327
42 41 34.79737
42 42 22.95214
42 64 819.2585
42 66 34.10943
42 76 2613.52
42 78 18.13558
42 79 197.4777
42 81 8.221887
42 178 -7504202.0
42 179 -36.69058
42 180 -91.64092
43 43 -1513015.0
43 44 -13.04808
43 45 -19.53212
43 154 276.4656
43 156 10.92568
43 184 1306.667
43 186 8.606437
44 43 3.466603
44 44 -41836.92
44 45 -18.94327
44 156 2.832253
44 186 2.231038
45 16 325.2031
45 18 12.85174
45 25 197.4777
45 27 7.804144
45 43 276.4656
45 45 10.92568
45 49 6969.387
45 51 45.90427
45 52 325.2031
45 54 12.85174
45 154 -10367900.0
45 155 -69.59474
45 156 -90.33758
46 46 -6954359.0
46 47 -52.2914
46 48 -104.962
46 151 3493.795
46 152 48.92426
46 153 24.1825
46 160 650.4062
46 162 28.91383
46 187 3097.726
46 189 22.95179
46 190 650.4062
46 192 28.91383
47 46 24.81675
47 47 -299490.2
47 48 -123.2876
47 152 12.13512
47 153 5.950363
47 162 6.663266
47 189 5.289298
47 192 6.663266
48 46 650.4062
48 48 28.91383
48 49 5240.318
48 50 73.38116
48 51 36.27116
48 61 394.9553
48 63 17.55776
48 85 552.9313
48 87 24.58058
48 91 4646.258
48 93 34.42523
48 94 650.4062
48 96 28.91383
48 190 -15027620.0
48 191 -78.4315
48 192 -170.6624
49 49 -15008220.0
49 50 -73.38116
49 51 -175.7989
49 151 650.4062
49 153 27.07935
49 154 6982.653
49 155 69.59474
49 156 45.90427
49 163 394.9553
49 165 16.44377
49 184 552.9313
49 186 23.02103
49 190 5227.04
49 192 36.27116
49 193 650.4062
49 195 27.07935
50 49 37.08376
50 50 -447529.4
50 51 -191.9287
50 153 6.663164
50 155 18.18596
50 156 11.89972
50 165 4.046167
50 186 5.664571
50 192 8.924908
50 195 6.663164
51 46 3106.588
51 47 52.2914
51 48 22.95179
51 58 813.0077
51 60 38.72204
51 88 2787.954
51 90 22.13105
51 91 813.0077
51 93 38.72204
51 187 -8710967.0
51 188 -56.08702
51 189 -122.5269
52 52 -5380043.0
52 53 -46.3998
52 54 -56.30852
52 154 325.2031
52 156 12.85174
52 166 325.2031
52 168 12.85174
52 193 4646.59
52 195 30.60504
53 52 12.32746
53 53 -148774.7
53 54 -63.95487
53 156 3.331544
53 168 3.331544
53 195 7.933712
54 49 650.4062
54 51 27.07935
54 52 4655.435
54 53 46.3998
54 54 30.60504
54 64 650.4062
54 66 27.07935
54 94 3484.942
54 96 24.1825
54 193 -6941428.0
54 194 -48.92426
54 195 -108.9462
55 55 -5987415.0
55 57 -92.44066
55 157 1572.99
55 158 31.54444
55 159 12.44694
55 169 987.648
55 171 50.52193
55 196 576.1411
55 198 29.4718
56 55 17.60119
56 56 -212403.7
56 57 -88.1072
56 158 6.839904
56 159 2.677373
56 171 10.1186
56 198 5.90265
57 55 576.1411
57 57 29.4718
57 58 4194.939
57 59 84.12452
57 60 33.1942
57 70 1024.073
57 72 52.38522
57 88 813.0077
57 90 41.58842
57 97 493.6941
57 99 25.25432
57 196 -21711980.0
57 198 -181.894
58 58 -18811640.0
58 59 -84.12452
58 60 -206.0704
58 157 576.1411
58 159 27.44052
58 160 4659.55
58 161 78.4315
58 162 34.42523
58 172 1024.073
58 174 48.77469
58 187 813.0077
58 189 38.72204
58 196 4181.632
58 198 33.1942
58 199 493.6941
58 201 23.51373
59 58 46.72313
59 59 -563853.3
59 60 -229.9505
59 159 5.902538
59 161 18.22011
59 162 7.93338
59 174 10.49158
59 189 8.329225
59 198 7.140171
59 201 5.057873
60 25 197.4777
60 27 7.804144
60 40 409.6293
60 42 16.18819
60 52 325.2031
60 54 12.85174
60 64 6969.387
60 66 45.90427
60 67 230.4564
60 69 9.107436
60 166 -10367940.0
60 167 -69.59474
60 168 -91.85579
61 61 -11270020.0
61 62 -58.81943
61 63 -133.0049
61 160 394.9553
61 162 17.55776
61 163 3929.958
61 164 55.03194
61 165 27.20143
61 175 614.4
61 177 27.31318
61 190 394.9553
61 192 17.55776
61 199 3484.444
61 201 25.81708
61 202 394.9553
61 204 17.55776
62 61 27.91485
62 62 -336878.3
62 63 -142.1216
62 162 4.046229
62 164 13.65006
62 165 6.693203
62 177 6.294391
62 192 4.046229
62 201 5.94961
62 204 4.046229
63 58 493.6941
63 60 23.51373
63 61 3494.412
63 62 58.81943
63 63 25.81708
63 73 768.0
63 75 36.5784
63 91 493.6941
63 93 23.51373
63 97 3136.0
63 99 24.89388
63 100 493.6941
63 102 23.51373
63 199 -14107800.0
63 200 -63.08888
63 201 -157.8305
64 64 -15008300.0
64 65 -73.38116
64 66 -178.9979
64 163 394.9553
64 165 16.44377
64 166 6982.653
64 167 69.59474
64 168 45.90427
64 178 819.2585
64 180 34.10943
64 193 650.4062
64 195 27.07935
64 202 5227.04
64 204 36.27116
64 205 460.9128
64 207 19.18988
65 64 37.08376
65 65 -447529.4
65 66 -192.7158
65 165 4.046167
65 167 18.18596
65 168 11.89972
65 180 8.392992
65 195 6.663164
65 204 8.924908
65 207 4.721877
66 61 394.9553
66 63 17.55776
66 64 5240.318
66 65 73.38116
66 66 36.27116
66 76 819.2585
66 78 36.42017
66 94 650.4062
66 96 28.91383
66 100 4646.258
66 102 34.42523
66 103 460.9128
66 105 20.4899
66 202 -15027700.0
66 203 -78.4315
66 204 -174.078
67 67 -3026102.0
67 68 -26.09616
67 69 -41.9327
67 166 230.4564
67 168 9.107436
67 181 395.0592
67 183 15.61239
67 205 2613.333
67 207 17.21287
68 67 6.933206
68 68 -83673.83
68 69 -38.63012
68 168 2.360911
68 183 4.047185
68 207 4.462076
69 64 460.9128
69 66 19.18988
69 67 2618.308
69 68 26.09616
69 69 17.21287
69 79 790.1184
69 81 32.8962
69 103 1960.0
69 105 13.60071
69 205 -3904515.0
69 206 -27.51597
69 207 -82.89967
70 70 -10856050.0
70 72 -94.23664
70 169 246.8471
70 171 12.62716
70 172 2097.47
70 173 42.06226
70 174 16.5971
70 196 1024.073
70 198 52.38522
70 208 246.8471
70 210 12.62716
71 70 23.46993
71 71 -283225.2
71 72 -111.6712
71 171 2.528985
71 173 9.120524
71 174 3.570086
71 198 10.49178
71 210 2.528985
72 70 246.8471
72 72 12.62716
72 73 1572.99
72 74 31.54444
72 75 12.44694
72 97 768.0
72 99 39.28611
72 106 246.8471
72 108 12.62716
72 208 -8141582.0
72 210 -76.98737
73 73 -7054035.0
73 74 -31.54444
73 75 -85.44761
73 172 246.8471
73 174 11.75686
73 175 1747.206
73 176 29.40971
73 177 12.90854
73 199 768.0
73 201 36.5784
73 208 1568.0
73 210 12.44694
73 211 246.8471
73 213 11.75686
74 73 17.51992
74 74 -211429.9
74 75 -87.98411
74 174 2.528936
74 176 6.832055
74 177 2.974805
74 201 7.868123
74 210 2.677373
74 213 2.528936
75 55 1.92126
75 56 8957.921
75 57 -3.593928
75 158 -3.569733e-06
75 159 0.0009072178
75 171 0.003428671
75 198 0.002000104
76 76 -7513900.0
76 77 -39.21575
76 78 -89.32612
76 175 197.4777
76 177 8.778877
76 178 2620.159
76 179 36.69058
76 180 18.13558
76 202 819.2585
76 204 36.42017
76 211 2323.129
76 213 17.21261
76 214 197.4777
76 216 8.778877
77 76 18.61123
77 77 -224601.6
77 78 -94.90425
77 177 2.023114
77 179 9.100692
77 180 4.462454
77 204 8.39312
77 213 3.96669
77 216 2.023114
78 40 98.73883
78 42 3.902072
78 67 395.0592
78 69 15.61239
78 79 2613.333
78 81 17.21287
78 82 172.8
78 84 6.828905
78 181 -3887930.0
78 182 -26.09616
78 183 -43.55624
79 79 -5628172.0
79 80 -27.51597
79 81 -86.32056
79 178 197.4777
79 180 8.221887
79 181 2618.308
79 182 26.09616
79 183 17.21287
79 205 790.1184
79 207 32.8962
79 214 1960.0
79 216 13.60071
79 217 345.6
79 219 14.38889
80 79 13.90542
80 80 -167811.5
80 81 -76.98793
80 180 2.023083
80 182 6.819248
80 183 4.462076
80 207 8.094463
80 216 3.346601
80 219 3.540541
81 43 1309.154
81 44 13.04808
81 45 8.606437
81 49 552.9313
81 51 23.02103
81 85 980.0
81 87 6.800357
81 184 -1952185.0
81 185 -13.75798
81 186 -38.42782
82 82 -756541.8
82 83 -6.52404
82 84 -555.6954
82 181 172.8
82 183 6.828905
82 217 653.3333
82 219 4.303218
83 82 1.733302
83 83 -20918.46
83 84 -9.859514
83 183 1.77025
83 219 1.115519
84 79 345.6
84 81 14.38889
84 82 654.577
84 83 6.52404
84 84 4.303218
84 112 490.0
84 114 3.400178
84 217 -976161.6
84 218 -6.878992
84 219 -1111.219
85 85 -1955821.0
85 86 -14.70486
85 87 -37.83521
85 184 982.4894
85 185 13.75798
85 186 6.800357
85 190 552.9313
85 192 24.58058
85 220 871.1111
85 222 6.454269
86 85 6.978713
86 86 -84219.59
86 87 -36.58679
86 185 3.412516
86 186 1.673301
86 192 5.664657
86 222 1.487402
87 7 436.8016
87 8 7.352428
87 9 3.227135
87 28 392.0
87 30 3.111734
87 31 432.0
87 33 20.57535
87 139 -1225008.0
87 140 -7.88611
87 141 -599.6299
88 88 -10644660.0
88 90 -105.3079
88 187 2796.826
88 188 56.08702
88 189 22.13105
88 196 813.0077
88 198 41.58842
88 223 813.0077
88 225 41.58842
89 88 31.29547
89 89 -377660.6
89 90 -144.8299
89 188 12.16157
89 189 4.760454
89 198 8.329384
89 225 8.329384
90 88 813.0077
90 90 41.58842
90 91 4194.939
90 92 84.12452
90 93 33.1942
90 97 493.6941
90 99 25.25432
90 115 691.1641
90 117 35.35566
90 118 813.0077
90 120 41.58842
90 223 -21711880.0
90 225 -176.981
91 91 -18811550.0
91 92 -84.12452
91 93 -201.4961
91 187 813.0077
91 189 38.72204
91 190 4659.55
91 191 78.4315
91 192 34.42523
91 199 493.6941
91 201 23.51373
91 220 691.1641
91 222 32.91885
91 223 4181.632
91 225 33.1942
91 226 813.0077
91 228 38.72204
92 91 46.72313
92 92 -563853.3
92 93 -228.9665
92 189 8.329225
92 191 18.22011
92 192 7.93338
92 201 5.057873
92 222 7.080943
92 225 7.140171
92 228 8.329225
93 91 813.0077
93 93 38.72204
93 94 3106.588
93 95 52.2914
93 96 22.95179
93 100 813.0077
93 102 38.72204
93 118 2787.954
93 120 22.13105
93 226 -8710967.0
93 227 -56.08702
93 228 -122.5269
94 94 -6954359.0
94 95 -52.2914
94 96 -104.962
94 190 650.4062
94 192 28.91383
94 193 3493.795
94 194 48.92426
94 195 24.1825
94 202 650.4062
94 204 28.91383
94 226 3097.726
94 228 22.95179
95 94 24.81675
95 95 -299490.2
95 96 -123.2876
95 192 6.663266
95 194 12.13512
95 195 5.950363
95 204 6.663266
95 228 5.289298
96 85 873.6031
96 86 14.70486
96 87 6.454269
96 91 691.1641
96 93 32.91885
96 115 784.0
96 117 6.223469
96 220 -2449843.0
96 221 -15.77222
96 222 -45.59659
97 97 -16282890.0
97 99 -139.9429
97 196 493.6941
97 198 25.25432
97 199 3145.98
97 200 63.08888
97 201 24.89388
97 208 768.0
97 210 39.28611
97 223 493.6941
97 225 25.25432
97 229 493.6941
97 231 25.25432
98 97 35.20238
98 98 -424807.5
98 99 -167.2141
98 198 5.057969
98 200 13.67981
98 201 5.354746
98 210 7.868273
98 225 5.057969
98 231 5.057969
99 73 246.8471
99 75 11.75686
99 76 2329.775
99 77 39.21575
99 78 17.21261
99 100 1024.073
99 102 48.77469
99 106 2090.816
99 108 16.5971
99 109 246.8471
99 111 11.75686
99 211 -9405887.0
99 212 -42.06226
99 213 -106.0981
100 100 -18811640.0
100 101 -84.12452
100 102 -206.0704
100 199 493.6941
100 201 23.51373
100 202 4659.55
100 203 78.4315
100 204 34.42523
100 211 1024.073
100 213 48.77469
100 226 813.0077
100 228 38.72204
100 229 4181.632
100 231 33.1942
100 232 576.1411
100 234 27.44052
101 100 46.72313
101 101 -563853.3
101 102 -229.9505
101 201 5.057873
101 203 18.22011
101 204 7.93338
101 213 10.49158
101 228 8.329225
101 231 7.140171
101 234 5.902538
102 97 493.6941
102 99 25.25432
102 100 4194.939
102 101 84.12452
102 102 33.1942
102 106 1024.073
102 108 52.38522
102 118 813.0077
102 120 41.58842
102 121 576.1411
102 123 29.4718
102 229 -21711980.0
102 231 -181.894
103 103 -3911788.0
103 104 -29.40971
103 105 -82.1239
103 202 460.9128
103 204 20.4899
103 205 1964.979
103 206 27.51597
103 207 13.60071
103 214 790.1184
103 216 35.12475
103 232 1742.222
103 234 12.90854
104 103 13.95743
104 104 -168439.2
104 105 -74.66079
104 204 4.721949
104 206 6.825032
104 207 3.346601
104 216 8.094586
104 234 2.974805
105 76 197.4777
105 78 8.778877
105 79 1964.979
105 80 27.51597
105 81 13.60071
105 103 790.1184
105 105 35.12475
105 109 1742.222
105 111 12.90854
105 112 345.6
105 114 15.36366
105 214 -5635445.0
105 215 -29.40971
105 216 -85.77654
106 106 -10856050.0
106 108 -94.23664
106 208 246.8471
106 210 12.62716
106 211 2097.47
106 212 42.06226
106 213 16.5971
106 229 1024.073
106 231 52.38522
106 235 246.8471
106 237 12.62716
107 106 23.46993
107 107 -283225.2
107 108 -111.6712
107 210 2.528985
107 212 9.120524
107 213 3.570086
107 231 10.49178
107 237 2.528985
108 100 576.1411
108 102 27.44052
108 103 1747.206
108 104 29.40971
108 105 12.90854
108 109 987.648
108 111 47.03983
108 121 1568.0
108 123 12.44694
108 232 -4899868.0
108 233 -31.54444
108 234 -99.83582
109 109 -7054440.0
109 110 -31.54444
109 111 -104.7275
109 211 246.8471
109 213 11.75686
109 214 1747.206
109 215 29.40971
109 216 12.90854
109 232 987.648
109 234 47.03983
109 235 1568.0
109 237 12.44694
109 238 432.0
109 240 20.57535
110 109 17.51992
110 110 -211429.9
110 111 -92.13128
110 213 2.528936
110 215 6.832055
110 216 2.974805
110 234 10.11841
110 237 2.677373
110 240 4.425819
111 106 246.8471
111 108 12.62716
111 109 1572.99
111 110 31.54444
111 111 12.44694
111 121 987.648
111 123 50.52193
111 124 432.0
111 126 22.09843
111 235 -8141986.0
111 237 -97.69447
112 112 -977979.8
112 113 -7.352428
112 114 -1111.118
112 214 345.6
112 216 15.36366
112 217 491.2447
112 218 6.878992
112 219 3.400178
112 238 435.5556
112 240 3.227135
113 112 3.489356
113 113 -42109.79
113 114 -19.06917
113 216 3.540595
113 218 1.706258
113 219 0.8366503
113 240 0.7437012
114 109 432.0
114 111 20.57535
114 112 436.8016
114 113 7.352428
114 114 3.227135
114 124 392.0
114 126 3.111734
114 238 -1225008.0
114 239 -7.88611
114 240 -1388.322
115 115 -2993617.0
115 117 -41.57913
115 220 786.4949
115 221 15.77222
115 222 6.223469
115 223 691.1641
115 225 35.35566
116 115 8.800595
116 116 -106201.9
116 117 -43.12405
116 221 3.419952
116 222 1.338686
116 225 7.081078
117 88 3.416062
117 89 15927.47
117 90 -6.38611
117 188 -6.347098e-06
117 189 0.001613062
117 198 0.002822399
117 225 0.002822399
118 118 -10644660.0
118 120 -105.3079
118 223 813.0077
118 225 41.58842
118 226 2796.826
118 227 56.08702
118 228 22.13105
118 229 813.0077
118 231 41.58842
119 118 31.29547
119 119 -377660.6
119 120 -144.8299
119 225 8.329384
119 227 12.16157
119 228 4.760454
119 231 8.329384
120 118 3.416062
120 119 15927.47
120 120 -6.38611
120 225 0.002822399
120 227 -6.347098e-06
120 228 0.001613062
120 231 0.002822399
121 121 -5987415.0
121 123 -92.44066
121 229 576.1411
121 231 29.4718
121 232 1572.99
121 233 31.54444
121 234 12.44694
121 235 987.648
121 237 50.52193
122 121 17.60119
122 122 -212403.7
122 123 -88.1072
122 231 5.90265
122 233 6.839904
122 234 2.677373
122 237 10.1186
123 97 3.842521
123 98 17915.84
123 99 -7.184806
123 198 0.001713885
123 200 -7.139466e-06
123 201 0.001814436
123 210 0.002666152
123 225 0.001713885
123 231 0.001713885
124 124 -1496895.0
124 126 -1386.618
124 235 432.0
124 237 22.09843
124 238 393.2475
124 239 7.88611
124 240 3.111734
125 124 4.400297
125 125 -53100.94
125 126 -22.53178
125 237 4.425904
125 239 1.709976
125 240 0.6693432
126 121 1.92126
126 122 8957.921
126 123 -3.593928
126 231 0.002000104
126 233 -3.569733e-06
126 234 0.0009072178
126 237 0.003428671
127 49 4.048092
127 50 18872.7
127 51 -7.667633
127 153 0.002257725
127 155 -1.586535e-06
127 156 0.004032047
127 165 0.00137099
127 186 0.001919365
127 192 0.003024102
127 195 0.002257725
128 2 1.704812
128 3 1.115519
128 9 0.8366503
128 12 3.540541
128 127 3.476354
128 128 -41952.89
128 129 -19.373
129 2 -1.487271e-07
129 3 0.0003779774
129 9 0.0002834893
129 12 0.001199665
129 127 0.3794815
129 128 1769.189
129 129 -0.7192572
130 3 1.77025
130 6 4.047185
130 12 4.462076
130 15 1.01153
130 130 6.933206
130 131 -83673.83
130 132 -39.05099
131 1 0.1892107
131 2 882.1067
131 3 -0.3596622
131 129 0.0003779774
131 132 0.0005998212
132 3 0.0005998212
132 6 0.001371325
132 12 0.00151191
132 15 0.000342741
132 130 0.7568428
132 131 3528.427
132 132 -1.438564
133 5 6.819248
133 6 4.462076
133 12 8.094463
133 21 3.346601
133 24 4.721877
133 133 13.90542
133 134 -167811.5
133 135 -76.14618
134 10 1.517926
134 11 7076.758
134 12 -2.876858
134 129 0.001199665
134 131 -5.949082e-07
134 132 0.00151191
134 135 0.002742702
134 144 0.001133957
134 147 0.0006854951
135 5 -5.949082e-07
135 6 0.00151191
135 12 0.002742702
135 21 0.001133957
135 24 0.001599945
135 133 1.517926
135 134 7076.758
135 135 -2.876573
136 4 0.7568428
136 5 3528.427
136 6 -1.438421
136 132 0.001371325
136 135 0.00151191
136 138 0.0007999575
137 6 2.360911
137 15 4.196448
137 18 3.331544
137 24 11.89972
137 27 2.02306
137 136 18.48987
137 137 -223146.2
137 138 -97.8435
138 6 0.0007999575
138 15 0.0014219
138 18 0.001128841
138 24 0.004032047
138 27 0.000685482
138 136 2.018391
138 137 9409.81
138 138 -3.834309
139 13 98.73883
139 15 3.902072
139 25 307.2
139 27 12.14028
139 37 2613.333
139 39 17.21287
139 40 98.73883
139 42 3.902072
139 148 -3887768.0
139 149 -26.09616
139 150 -37.15729
140 8 1.708014
140 9 0.7437012
140 30 0.6693432
140 33 4.425819
140 139 4.37998
140 140 -52857.47
140 141 -23.23024
141 8 -6.098109e-07
141 9 0.0002519973
141 30 0.0002268045
141 33 0.001499663
141 139 0.4781065
141 140 2229.112
141 141 -0.8988198
142 9 3.540595
142 11 6.825032
142 12 3.346601
142 21 8.094586
142 33 2.974805
142 36 2.023114
142 142 13.95743
142 143 -168439.2
142 144 -75.50256
143 7 0.380895
143 8 1775.825
143 9 -0.7191675
143 128 -3.569528e-07
143 129 0.0002834893
143 141 0.0002519973
143 144 0.001199696
144 9 0.001199696
144 11 -1.427811e-06
144 12 0.001133957
144 21 0.002742771
144 33 0.001007989
144 36 0.0006855125
144 142 1.52358
144 143 7103.298
144 144 -2.876499
145 12 2.023083
145 14 9.09298
145 15 5.949859
145 24 8.392992
145 36 4.462454
145 39 2.023083
145 145 18.54188
145 146 -223764.7
145 147 -96.88498
146 13 1.009196
146 14 4704.905
146 15 -1.917244
146 132 0.000342741
146 138 0.0014219
146 147 0.002016023
146 150 0.000342741
147 12 0.0006854951
147 14 -7.932676e-07
147 15 0.002016023
147 24 0.002843854
147 36 0.001512051
147 39 0.0006854951
147 145 2.024046
147 146 9436.351
147 147 -3.834128
148 22 4.048092
148 23 18872.7
148 24 -7.6679
148 135 0.001599945
148 137 -1.586535e-06
148 138 0.004032047
148 147 0.002843854
148 153 0.002257725
148 162 0.003024102
148 165 0.00137099
149 15 1.01153
149 27 3.147111
149 39 4.462076
149 42 1.01153
149 148 6.933206
149 149 -83673.83
149 150 -37.3922
150 15 0.000342741
150 27 0.001066349
150 39 0.00151191
150 42 0.000342741
150 148 0.7568428
150 149 3528.427
150 150 -1.438001
151 17 12.12484
151 18 7.933712
151 24 6.663164
151 48 5.950363
151 51 6.663164
151 151 24.72427
151 152 -298374.3
151 153 -125.9288
152 37 1.517926
152 38 7076.758
152 39 -2.875734
152 147 0.0006854951
152 149 -5.949082e-07
152 150 0.00151191
152 165 0.002132738
152 177 0.001133957
152 180 0.0006854951
153 17 -1.057766e-06
153 18 0.002688223
153 24 0.002257725
153 48 0.002016212
153 51 0.002257725
153 151 2.698921
153 152 12582.7
153 153 -5.111432
154 16 1.34569
154 17 6273.655
154 18 -2.555955
154 138 0.001128841
154 153 0.002688223
154 156 0.001128841
155 18 3.331544
155 27 2.02306
155 45 2.832253
155 51 11.89972
155 54 3.331544
155 154 18.48987
155 155 -223146.2
155 156 -97.44994
156 18 0.001128841
156 27 0.000685482
156 45 0.0009596641
156 51 0.004032047
156 54 0.001128841
156 154 2.018391
156 155 9409.81
156 156 -3.834175
157 20 6.832055
157 21 2.974805
157 33 10.11841
157 57 2.677373
157 60 5.902538
157 157 17.51992
157 158 -211429.9
157 159 -91.07906
158 31 1.912426
158 32 8916.447
158 33 -3.595066
158 141 0.001499663
158 143 -2.439244e-06
158 144 0.001007989
158 159 0.003428562
158 171 0.0009072178
158 174 0.0008569152
159 20 -2.439244e-06
159 21 0.001007989
159 33 0.003428562
159 57 0.0009072178
159 60 0.00200004
159 157 1.912426
159 158 8916.447
159 159 -3.594709
160 19 1.52358
160 20 7103.298
160 21 -2.876214
160 134 -1.427811e-06
160 135 0.001133957
160 144 0.002742771
160 159 0.001007989
160 162 0.001599986
161 21 4.721949
161 23 18.20138
161 24 8.924908
161 36 8.39312
161 48 6.663266
161 60 7.93338
161 63 4.046229
161 160 37.22246
161 161 -449203.2
161 162 -188.7544
162 21 0.001599986
162 23 -3.807769e-06
162 24 0.003024102
162 36 0.002843927
162 48 0.002257782
162 60 0.002688164
162 63 0.001371025
162 160 4.06317
162 161 18943.48
162 162 -7.666943
163 24 4.046167
163 26 13.6385
163 27 8.924151
163 39 6.294295
163 51 4.046167
163 63 6.693203
163 66 4.046167
163 163 27.81084
163 164 -335623.1
163 165 -145.0925
164 25 1.513686
164 26 7056.854
164 27 -2.875622
164 138 0.000685482
164 150 0.001066349
164 156 0.000685482
164 165 0.003023819
164 168 0.000685482
165 24 0.00137099
165 26 -1.189816e-06
165 27 0.003023819
165 39 0.002132738
165 51 0.00137099
165 63 0.002267915
165 66 0.00137099
165 163 3.035852
165 164 14153.52
165 165 -5.750706
166 64 4.048092
166 65 18872.7
166 66 -7.6679
166 165 0.00137099
166 167 -1.586535e-06
166 168 0.004032047
166 180 0.002843854
166 195 0.002257725
166 204 0.003024102
166 207 0.001599945
167 27 2.02306
167 42 4.196448
167 54 3.331544
167 66 11.89972
167 69 2.360911
167 166 18.48987
167 167 -223146.2
167 168 -97.8435
168 27 0.000685482
168 42 0.0014219
168 54 0.001128841
168 66 0.004032047
168 69 0.0007999575
168 166 2.018391
168 167 9409.81
168 168 -3.834309
169 30 4.425904
169 32 6.839904
169 33 2.677373
169 57 10.1186
169 72 2.528985
169 169 17.60119
169 170 -212403.7
169 171 -89.15944
170 28 0.4803151
170 29 2239.48
170 30 -0.8986245
170 140 -8.924332e-07
170 141 0.0002268045
170 171 0.00149971
171 30 0.00149971
171 32 -3.569733e-06
171 33 0.0009072178
171 57 0.003428671
171 72 0.0008569424
171 169 1.92126
171 170 8957.921
171 171 -3.594284
172 34 2.031585
172 35 9471.741
172 36 -3.83365
172 144 0.0006855125
172 146 -1.903884e-06
172 147 0.001512051
172 162 0.002843927
172 174 0.001344082
172 177 0.0006855125
173 33 2.528936
173 35 9.110057
173 36 3.96669
173 60 10.49158
173 72 3.570086
173 75 2.528936
173 172 23.36156
173 173 -281926.6
173 174 -115.6341
174 33 0.0008569152
174 35 -3.252557e-06
174 36 0.001344082
174 60 0.00355501
174 72 0.00120971
174 75 0.0008569152
174 172 2.550083
174 173 11889.45
174 174 -4.791318
175 58 5.100167
175 59 23778.89
175 60 -9.582189
175 159 0.00200004
175 161 -6.505115e-06
175 162 0.002688164
175 174 0.00355501
175 189 0.002822309
175 198 0.00241942
175 201 0.00171383
176 36 2.023114
176 38 6.825032
176 39 3.346601
176 63 6.294391
176 75 2.974805
176 78 2.023114
176 175 13.95743
176 176 -168439.2
176 177 -72.18488
177 36 0.0006855125
177 38 -1.427811e-06
177 39 0.001133957
177 63 0.002132793
177 75 0.001007989
177 78 0.0006855125
177 175 1.52358
177 176 7103.298
177 177 -2.875375
178 39 2.023083
178 41 9.09298
178 42 5.949859
178 66 8.392992
178 78 4.462454
178 81 2.023083
178 178 18.54188
178 179 -223764.7
178 180 -96.88498
179 40 1.009196
179 41 4704.905
179 42 -1.917244
179 150 0.000342741
179 168 0.0014219
179 180 0.002016023
179 183 0.000342741
180 39 0.0006854951
180 41 -7.932676e-07
180 42 0.002016023
180 66 0.002843854
180 78 0.001512051
180 81 0.0006854951
180 178 2.024046
180 179 9436.351
180 180 -3.834128
181 42 1.01153
181 69 4.047185
181 81 4.462076
181 84 1.77025
181 181 6.933206
181 182 -83673.83
181 183 -39.05099
182 79 1.517926
182 80 7076.758
182 81 -2.876858
182 180 0.0006854951
182 182 -5.949082e-07
182 183 0.00151191
182 207 0.002742702
182 216 0.001133957
182 219 0.001199665
183 42 0.000342741
183 69 0.001371325
183 81 0.00151191
183 84 0.0005998212
183 181 0.7568428
183 182 3528.427
183 183 -1.438564
184 44 3.409624
184 45 2.231038
184 51 5.664571
184 87 1.673301
184 184 6.952709
184 185 -83905.77
184 186 -37.32949
185 43 0.3784214
185 44 1764.213
185 45 -0.7190845
185 156 0.0009596641
185 186 0.0007559548
186 44 -2.974541e-07
186 45 0.0007559548
186 51 0.001919365
186 87 0.0005669787
186 184 0.758963
186 185 3538.379
186 186 -1.438034
187 46 2.708974
187 47 12629.89
187 48 -5.110793
187 152 -2.538694e-06
187 153 0.002016212
187 162 0.002257782
187 189 0.001792237
187 192 0.002257782
188 47 12.14761
188 48 5.289298
188 60 8.329225
188 90 4.760454
188 93 8.329225
188 187 31.15098
188 188 -375929.0
188 189 -150.1142
189 47 -4.337053e-06
189 48 0.001792237
189 60 0.002822309
189 90 0.001613062
189 93 0.002822309
189 187 3.400354
189 188 15853.73
189 189 -6.387499
190 48 6.663266
190 50 18.20138
190 51 8.924908
190 63 4.046229
190 87 5.664657
190 93 7.93338
190 96 6.663266
190 190 37.22246
190 191 -449203.2
190 192 -187.9672
191 91 5.100167
191 92 23778.89
191 93 -9.581856
191 189 0.002822309
191 191 -6.505115e-06
191 192 0.002688164
191 201 0.00171383
191 222 0.002399336
191 225 0.00241942
191 228 0.002822309
192 48 0.002257782
192 50 -3.807769e-06
192 51 0.003024102
192 63 0.001371025
192 87 0.001919414
192 93 0.002688164
192 96 0.002257782
192 190 4.06317
192 191 18943.48
192 192 -7.666676
193 51 6.663164
193 53 12.12484
193 54 7.933712
193 66 6.663164
193 96 5.950363
193 193 24.72427
193 194 -298374.3
193 195 -125.9288
194 52 1.34569
194 53 6273.655
194 54 -2.555955
194 156 0.001128841
194 168 0.001128841
194 195 0.002688223
195 51 0.002257725
195 53 -1.057766e-06
195 54 0.002688223
195 66 0.002257725
195 96 0.002016212
195 193 2.698921
195 194 12582.7
195 195 -5.111432
196 57 5.90265
196 59 18.24105
196 60 7.140171
196 72 10.49178
196 90 8.329384
196 99 5.057969
196 196 46.93986
196 197 -566450.4
196 198 -222.0247
197 61 3.04716
197 62 14206.6
197 63 -5.749988
197 162 0.001371025
197 164 -2.855623e-06
197 165 0.002267915
197 177 0.002132793
197 192 0.001371025
197 201 0.002015979
197 204 0.001371025
198 57 0.002000104
198 59 -9.519967e-06
198 60 0.00241942
198 72 0.003555123
198 90 0.002822399
198 99 0.001713885
198 196 5.123727
198 197 23889.5
198 198 -9.580106
199 70 2.561863
199 71 11944.75
199 72 -4.790276
199 171 0.0008569424
199 173 -4.759984e-06
199 174 0.00120971
199 198 0.003555123
199 210 0.0008569424
200 60 5.057873
200 62 13.66411
200 63 5.94961
200 75 7.868123
200 93 5.057873
200 99 5.354746
200 102 5.057873
200 199 35.03984
200 200 -422859.7
200 201 -173.158
201 60 0.00171383
201 62 -4.878487e-06
201 63 0.002015979
201 75 0.002666067
201 93 0.00171383
201 99 0.001814436
201 102 0.00171383
201 199 3.824852
201 200 17832.9
201 201 -7.186369
202 63 4.046229
202 65 18.20138
202 66 8.924908
202 78 8.39312
202 96 6.663266
202 102 7.93338
202 105 4.721949
202 202 37.22246
202 203 -449203.2
202 204 -188.7544
203 100 5.100167
203 101 23778.89
203 102 -9.582189
203 201 0.00171383
203 203 -6.505115e-06
203 204 0.002688164
203 213 0.00355501
203 228 0.002822309
203 231 0.00241942
203 234 0.00200004
204 63 0.001371025
204 65 -3.807769e-06
204 66 0.003024102
204 78 0.002843927
204 96 0.002257782
204 102 0.002688164
204 105 0.001599986
204 202 4.06317
204 203 18943.48
204 204 -7.666943
205 66 4.721877
205 68 6.819248
205 69 4.462076
205 81 8.094463
205 105 3.346601
205 205 13.90542
205 206 -167811.5
205 207 -76.14618
206 67 0.7568428
206 68 3528.427
206 69 -1.438421
206 168 0.0007999575
206 183 0.001371325
206 207 0.00151191
207 66 0.001599945
207 68 -5.949082e-07
207 69 0.00151191
207 81 0.002742702
207 105 0.001133957
207 205 1.517926
207 206 7076.758
207 207 -2.876573
208 73 1.912426
208 74 8916.447
208 75 -3.59366
208 174 0.0008569152
208 176 -2.439244e-06
208 177 0.001007989
208 201 0.002666067
208 210 0.0009072178
208 213 0.0008569152
209 72 2.528985
209 74 6.839904
209 75 2.677373
209 99 7.868273
209 108 2.528985
209 208 17.60119
209 209 -212403.7
209 210 -85.01219
210 72 0.0008569424
210 74 -3.569733e-06
210 75 0.0009072178
210 99 0.002666152
210 108 0.0008569424
210 208 1.92126
210 209 8957.921
210 210 -3.592879
211 76 2.031585
211 77 9471.741
211 78 -3.83365
211 177 0.0006855125
211 179 -1.903884e-06
211 180 0.001512051
211 204 0.002843927
211 213 0.001344082
211 216 0.0006855125
212 75 2.528936
212 77 9.110057
212 78 3.96669
212 102 10.49158
212 108 3.570086
212 111 2.528936
212 211 23.36156
212 212 -281926.6
212 213 -115.6341
213 75 0.0008569152
213 77 -3.252557e-06
213 78 0.001344082
213 102 0.00355501
213 108 0.00120971
213 111 0.0008569152
213 211 2.550083
213 212 11889.45
213 213 -4.791318
214 78 2.023114
214 80 6.825032
214 81 3.346601
214 105 8.094586
214 111 2.974805
214 114 3.540595
214 214 13.95743
214 215 -168439.2
214 216 -75.50256
215 103 1.52358
215 104 7103.298
215 105 -2.876214
215 204 0.001599986
215 206 -1.427811e-06
215 207 0.001133957
215 216 0.002742771
215 234 0.001007989
216 78 0.0006855125
216 80 -1.427811e-06
216 81 0.001133957
216 105 0.002742771
216 111 0.001007989
216 114 0.001199696
216 214 1.52358
216 215 7103.298
216 216 -2.876499
217 81 3.540541
217 83 1.704812
217 84 1.115519
217 114 0.8366503
217 217 3.476354
217 218 -41952.89
217 219 -19.44052
218 82 0.1892107
218 83 882.1067
218 84 -0.3596622
218 183 0.0005998212
218 219 0.0003779774
219 81 0.001199665
219 83 -1.487271e-07
219 84 0.0003779774
219 114 0.0002834893
219 217 0.3794815
219 218 1769.189
219 219 -0.7192572
220 85 0.76179
220 86 3551.649
220 87 -1.437855
220 185 -7.139057e-07
220 186 0.0005669787
220 192 0.001919414
220 222 0.0005039947
221 86 3.416027
221 87 1.487402
221 93 7.080943
221 117 1.338686
221 220 8.759961
221 221 -105714.9
221 222 -44.61
222 86 -1.219622e-06
222 87 0.0005039947
222 93 0.002399336
222 117 0.0004536089
222 220 0.956213
222 221 4458.224
222 222 -1.79704
223 90 8.329384
223 92 18.24105
223 93 7.140171
223 99 5.057969
223 117 7.081078
223 120 8.329384
223 223 46.93986
223 224 -566450.4
223 225 -221.0407
224 115 0.9606302
224 116 4478.961
224 117 -1.796649
224 221 -1.784866e-06
224 222 0.0004536089
224 225 0.002399412
225 90 0.002822399
225 92 -9.519967e-06
225 93 0.00241942
225 99 0.001713885
225 117 0.002399412
225 120 0.002822399
225 223 5.123727
225 224 23889.5
225 225 -9.579772
226 94 2.708974
226 95 12629.89
226 96 -5.110793
226 192 0.002257782
226 194 -2.538694e-06
226 195 0.002016212
226 204 0.002257782
226 228 0.001792237
227 93 8.329225
227 95 12.14761
227 96 5.289298
227 102 8.329225
227 120 4.760454
227 226 31.15098
227 227 -375929.0
227 228 -150.1142
228 93 0.002822309
228 95 -4.337053e-06
228 96 0.001792237
228 102 0.002822309
228 120 0.001613062
228 226 3.400354
228 227 15853.73
228 228 -6.387499
229 99 5.057969
229 101 18.24105
229 102 7.140171
229 108 10.49178
229 120 8.329384
229 123 5.90265
229 229 46.93986
229 230 -566450.4
229 231 -222.0247
230 106 2.561863
230 107 11944.75
230 108 -4.790276
230 210 0.0008569424
230 212 -4.759984e-06
230 213 0.00120971
230 231 0.003555123
230 237 0.0008569424
231 99 0.001713885
231 101 -9.519967e-06
231 102 0.00241942
231 108 0.003555123
231 120 0.002822399
231 123 0.002000104
231 229 5.123727
231 230 23889.5
231 231 -9.580106
232 112 0.380895
232 113 1775.825
232 114 -0.7191675
232 216 0.001199696
232 218 -3.569528e-07
232 219 0.0002834893
232 240 0.0002519973
233 102 5.902538
233 104 6.832055
233 105 2.974805
233 111 10.11841
233 123 2.677373
233 232 17.51992
233 233 -211429.9
233 234 -91.07906
234 102 0.00200004
234 104 -2.439244e-06
234 105 0.001007989
234 111 0.003428562
234 123 0.0009072178
234 232 1.912426
234 233 8916.447
234 234 -3.594709
235 108 2.528985
235 110 6.839904
235 111 2.677373
235 123 10.1186
235 126 4.425904
235 235 17.60119
235 236 -212403.7
235 237 -89.15944
236 124 0.4803151
236 125 2239.48
236 126 -0.8986245
236 237 0.00149971
236 239 -8.924332e-07
236 240 0.0002268045
237 108 0.0008569424
237 110 -3.569733e-06
237 111 0.0009072178
237 123 0.003428671
237 126 0.00149971
237 235 1.92126
237 236 8957.921
237 237 -3.594284
238 109 1.912426
238 110 8916.447
238 111 -3.595066
238 213 0.0008569152
238 215 -2.439244e-06
238 216 0.001007989
238 234 0.003428562
238 237 0.0009072178
238 240 0.001499663
239 111 4.425819
239 113 1.708014
239 114 0.7437012
239 126 0.6693432
239 238 4.37998
239 239 -52857.47
239 240 -23.27474
240 111 0.001499663
240 113 -6.098109e-07
240 114 0.0002519973
240 126 0.0002268045
240 238 0.4781065
240 239 2229.112
240 240 -0.8988198
