%%MatrixMarket matrix coordinate real general
% migrated from Universal blas/matrices/steam3.hpp (universal#1210)
80 80 314
1 1 -382538.8
1 4 -79.38576
1 41 7495.626
1 44 79.38576
2 1 0.911472
2 2 -9532.838
2 4 -2.46233
3 1 0.1082411
3 2 426.9868
3 3 -745.1489
3 4 -1.08461
3 44 0.8792291
4 1 7495.626
4 4 79.38576
4 5 17404.3
4 8 184.328
4 41 -2942391.0
4 44 -263.7138
5 5 -6411305.0
5 8 -499.4389
5 41 17404.3
5 44 184.328
5 45 29752.85
5 48 315.1109
6 5 15.46687
6 6 -161763.8
6 8 -41.78354
7 5 1.836756
7 6 7245.586
7 7 -12644.51
7 8 -9.016613
7 44 2.041507
7 48 3.489979
8 5 29752.85
8 8 315.1109
8 9 41934.29
8 12 444.1238
8 45 -9615382.0
8 48 -759.2347
9 9 -12820430.0
9 12 -1016.699
9 45 41934.29
9 48 444.1238
9 49 54062.71
9 52 572.5752
10 9 30.92434
10 10 -323429.3
10 12 -83.54171
11 9 3.672396
11 10 14486.77
11 11 -25281.34
11 12 -18.22848
11 48 4.918849
11 52 6.3415
12 9 54062.71
12 12 572.5752
12 13 66167.4
12 16 700.7754
12 49 -16025600.0
12 52 -1273.351
13 13 -19230810.0
13 16 -1529.617
13 49 66167.4
13 52 700.7754
13 53 78259.43
13 56 828.8414
14 13 46.38587
14 14 -485137.2
14 16 -125.3108
15 13 5.508518
15 14 21729.85
15 15 -37921.49
15 16 -27.39318
15 52 7.761368
15 56 9.17975
16 13 78259.43
16 16 828.8414
16 17 90343.88
16 20 956.8271
16 53 -22436010.0
16 56 -1785.668
17 17 -38713480.0
17 20 -1529.402
17 53 90343.88
17 56 956.8271
17 57 54062.71
17 60 572.5752
18 17 93.73489
18 18 -980347.7
18 20 -253.2236
19 17 11.13141
19 18 43910.9
19 19 -76630.38
19 20 -38.05989
19 56 10.59724
19 60 6.3415
20 17 54062.71
20 20 572.5752
20 21 66167.4
20 24 700.7754
20 57 -63741730.0
20 60 -1273.351
21 21 -76489950.0
21 24 -1529.617
21 57 66167.4
21 60 700.7754
21 61 78259.43
21 64 828.8414
22 21 185.5435
22 22 -1940549.0
22 24 -501.2433
23 21 22.03407
23 22 86919.41
23 23 -151686.0
23 24 -58.74936
23 60 7.761368
23 64 9.17975
24 21 78259.43
24 24 828.8414
24 25 90343.88
24 28 956.8271
24 61 -89238240.0
24 64 -1785.668
25 25 -101986600.0
25 28 -2041.588
25 61 90343.88
25 64 956.8271
25 65 102423.4
25 68 1084.761
26 25 247.3907
26 26 -2587393.0
26 28 -668.3229
27 25 29.3787
27 26 115892.3
27 27 -202247.5
27 28 -78.3556
27 64 10.59724
27 68 12.01416
28 25 102423.4
28 28 1084.761
28 29 114499.7
28 32 1212.66
28 65 -114734900.0
28 68 -2297.421
29 29 -192631200.0
29 32 -1913.435
29 65 114499.7
29 68 1212.66
29 69 66167.4
29 72 700.7754
30 29 467.7148
30 30 -4891702.0
30 32 -1263.525
31 29 55.54311
31 30 219105.0
31 31 -382367.4
31 32 -126.5815
31 68 13.43069
31 72 7.761368
32 29 66167.4
32 32 700.7754
32 33 54062.71
32 36 572.5752
32 69 -384489100.0
32 72 -1273.351
33 33 -771988700.0
33 36 -1016.699
33 69 54062.71
33 72 572.5752
33 73 41934.29
33 76 444.1238
34 33 1875.941
34 34 -19619950.0
34 36 -5067.829
35 33 222.7759
35 34 878800.2
35 35 -1533624.0
35 36 -433.9633
35 72 6.3415
35 76 4.918849
36 33 41934.29
36 36 444.1238
36 37 29752.85
36 40 315.1109
36 73 -1948088000.0
36 76 -759.2347
37 37 -5882696000.0
37 40 -565.2284
37 73 29752.85
37 76 315.1109
37 77 23616.17
37 80 250.1176
38 37 14296.66
38 38 -149524900.0
38 40 -38622.24
39 37 1697.789
39 38 6697391.0
39 39 -11687840.0
39 40 -3227.705
39 76 3.489979
39 80 2.770152
40 39 -4353304.0
41 4 0.8792291
41 8 2.041507
41 41 0.8420166
41 42 3321.565
41 43 -5796.573
41 44 -4.518409
42 41 7.090414
42 42 -74156.72
42 44 -19.15466
43 3 -277.5414
44 43 -2159.017
45 7 -4709.631
46 45 23.19416
46 46 -242581.4
46 48 -62.65873
47 8 3.489979
47 12 4.918849
47 45 2.754405
47 46 10865.5
47 47 -18961.75
47 48 -13.63513
48 47 -7062.576
49 11 -9416.4
50 49 38.65503
50 50 -404282.5
50 52 -104.4261
51 12 6.3415
51 16 7.761368
51 49 4.590448
51 50 18108.28
51 51 -31601.35
51 52 -22.81295
52 51 -11770.38
53 15 -14124.41
54 53 54.11677
54 54 -565992.6
54 56 -146.1958
55 16 9.17975
55 20 10.59724
55 53 6.426595
55 54 25351.46
55 55 -44241.67
55 56 -31.97105
56 55 -16478.45
57 19 -28542.09
58 57 154.6201
58 58 -1617130.0
58 60 -417.7043
59 20 6.3415
59 24 7.761368
59 57 18.36179
59 58 72433.11
59 59 -126405.4
59 60 -48.94319
60 59 -47081.52
61 23 -56497.62
62 61 216.4671
62 62 -2263970.0
62 64 -584.783
63 24 9.17975
63 28 10.59724
63 61 25.70638
63 62 101405.8
63 63 -176966.7
63 64 -68.5532
64 63 -65913.79
65 27 -75329.99
66 65 278.3145
66 66 -2910816.0
66 68 -751.863
67 28 12.01416
67 32 13.43069
67 65 33.05102
67 66 130378.8
67 67 -227528.3
67 68 -88.15705
68 67 -84746.21
69 31 -142418.2
70 69 934.1366
70 70 -9769880.0
70 72 -2523.558
71 32 7.761368
71 36 6.3415
71 69 110.9327
71 70 437604.2
71 71 -763677.6
71 72 -224.5905
72 71 -284442.7
73 35 -571220.2
74 73 4734.289
74 74 -49514640.0
74 76 -12789.62
75 36 4.918849
75 40 3.489979
75 73 562.2168
75 74 2217818.0
75 75 -3870388.0
75 76 -1075.179
76 75 -1441582.0
77 37 23616.17
77 40 250.1176
77 77 -17385670000.0
77 80 -250.1176
78 77 44859.49
78 78 -469173200.0
78 80 -121187.3
79 40 2.770152
79 77 5327.254
79 78 21014810.0
79 79 -36673640.0
79 80 -10110.89
80 79 -13659630.0
