%%MatrixMarket matrix coordinate real general
% migrated from Universal blas/matrices/west0132.hpp (universal#1210)
132 132 413
1 34 1.0
2 15 48.17647
3 16 83.5
4 17 96.65138
5 18 168.2706
6 15 -1.0
6 17 2.5
6 19 1.0
7 16 -1.0
7 18 2.5
7 20 1.0
8 15 -3.347484e-05
8 17 3.347484e-05
8 21 1.010455
9 16 -4.136539e-05
9 18 4.136539e-05
9 22 1.005978
10 23 1.0
11 19 -0.09840023
11 20 -0.4989523
11 23 -0.4026475
11 24 1.0
11 34 -2.334253
12 21 -0.4
12 22 -0.6
12 25 1.0
12 34 -4.111957e-05
13 24 -1.0
13 26 7.359041
14 25 -316220.0
14 27 1080.859
15 26 0.002450037
15 27 -0.1497328
15 28 0.09812971
16 28 73.82816
16 29 -21599.43
17 25 -12323.69
17 30 1.0
18 25 -1.0
18 29 0.8191182
18 31 8.422065e-05
19 1 1.0
20 2 1.0
21 3 130.0
22 3 -2.433767
22 4 1.0
23 4 -1.634607
23 5 1.634607
23 24 1.5
23 25 -43103.15
23 28 -0.1364549
23 30 0.2880192
23 31 2.506886
24 1 -0.1222209
24 2 -0.1990257
24 5 -0.7636881
24 32 1.0
24 34 -2.753073
25 6 -1.138352
26 7 -0.4
27 8 -0.6
27 34 1.0
28 9 -0.4362416
29 9 -0.7680425
29 10 1.0
30 9 -0.1430279
30 11 1.0
31 12 5.440092
31 29 -21599.43
32 13 0.3092918
32 25 21599.43
32 29 -17692.49
33 12 -0.7423272
33 13 -0.2333258
33 14 1.475653
33 24 0.5
33 30 -1.069855
33 31 0.8356287
34 6 0.05148402
34 7 0.01809072
34 8 0.02713609
34 10 -0.05450672
34 11 -0.08678148
34 14 -0.4890926
34 33 1.0
34 34 0.410307
35 39 1.0
35 46 -2.707826
35 48 -0.9838643
36 40 1.0
36 47 -0.02534438
36 49 -0.636659
37 35 0.05812434
37 39 0.0590776
37 41 0.3418757
37 46 0.9409224
38 34 -1.0
38 35 0.0009532602
38 40 0.0590776
38 41 0.5990467
38 47 0.9409224
39 36 0.9593388
39 42 -0.9593388
40 43 -0.3162355
41 32 1.0
41 35 0.2724865
41 37 -0.2724865
41 41 0.7275135
41 44 -0.7275135
42 46 -1.0
42 47 -1.0
42 56 -1.0
43 46 -1.0
43 47 -1.0
43 57 -1.0
44 56 -1.0
44 58 1.0
45 57 -1.0
45 59 1.0
46 46 1.0
46 47 1.0
46 56 0.363341
46 57 0.636659
46 58 -1.0
46 60 1.0
47 46 1.0
47 47 1.0
47 56 0.363341
47 57 0.636659
47 59 -1.0
47 61 1.0
48 50 -1.0
48 60 1.0
49 51 -1.0
49 61 1.0
50 62 0.01008834
50 126 -1.0
50 130 0.003298062
51 62 0.9729237
51 63 0.9697149
51 129 -0.9967019
52 62 -1.0
52 64 1.003298
53 39 -0.9941602
53 40 -1.356078
53 65 1.0
53 120 -0.9781187
53 124 -0.02188131
54 39 -0.989584
54 40 -1.635106
54 66 1.0
54 121 -0.02638363
54 124 -0.9736164
55 63 32.98426
55 64 302.4477
55 65 1.99585
55 67 32.98426
55 122 -3329.98
55 125 -1.0
55 126 3317.081
55 129 -32.8565
55 131 -2.584738
56 63 26.57911
56 64 365.6366
56 66 2.203908
56 68 26.57911
56 123 -2683.337
56 125 -1.0
56 126 3317.081
56 129 -32.8565
56 131 -3.124755
57 52 -1.0
57 67 0.9739357
58 53 -1.0
58 68 0.9531211
59 42 -76.30451
59 69 117.554
60 42 -202.3722
60 70 106.564
61 54 -1.0
61 69 12.48266
62 55 -1.0
62 70 7.789714
63 43 1.0
63 48 1.0
63 50 -1.0
63 52 1.026762
63 54 -1.0
64 43 1.0
64 49 39.45648
64 51 -1.0
64 53 1.049185
64 55 -1.0
65 46 1.0
65 47 1.0
66 42 1.0
66 99 46.25822
67 42 1.0
67 100 80.14545
68 42 1.0
68 101 92.76208
69 42 1.0
69 102 161.4692
70 99 -1.0
70 101 2.5
70 103 1.0
71 100 -1.0
71 102 2.5
71 104 1.0
72 99 -3.350429e-05
72 101 3.350429e-05
72 105 1.010898
73 100 -4.138639e-05
73 102 4.138639e-05
73 106 1.006232
74 42 -0.004161268
74 107 1.0
75 46 -1.469328
75 47 -2.302854
75 103 -0.07873855
75 104 -0.5448713
75 107 -0.3763901
75 108 1.0
76 46 -3.31431e-05
76 47 -4.113008e-05
76 105 -0.363341
76 106 -0.636659
76 109 1.0
77 42 2.5
77 43 -1.0
77 108 -1.0
77 110 20.34779
78 42 3.822808
78 43 -3.822808
78 109 -100000.0
78 111 1036.91
79 110 0.0007269612
79 111 -0.05359162
79 112 0.03667612
80 42 1.0
80 43 -1.0
80 112 226.5677
80 113 -21850.27
81 42 -0.6640068
81 109 -11579.74
81 114 1.0
82 109 -1.0
82 113 0.8352941
82 115 8.39941e-05
83 42 -0.6073953
83 71 1.0
84 42 -0.4790423
84 72 1.0
85 42 -25.84199
85 73 124.714
86 73 -2.413012
86 74 1.0
87 74 -1.622999
87 75 1.622999
87 108 1.5
87 109 -42455.68
87 112 -0.1235445
87 114 0.2778569
87 115 2.470336
88 44 1.0
88 46 6.115571
88 47 -3.551621
88 71 -0.1474021
88 72 -0.2788901
88 75 -1.039134
89 43 1.0
89 81 -1.0
90 46 1.0
90 82 -0.3678513
91 47 1.0
91 83 -0.636659
92 42 0.4185035
92 84 -0.4185035
93 42 -0.2548846
93 84 -0.7362677
93 85 1.0
94 42 -0.6633122
94 84 -0.138192
94 86 1.0
95 42 1.0
95 87 5.410127
95 113 -21850.27
96 88 0.2970625
96 109 21850.27
96 113 -18251.4
97 87 -0.6683917
97 88 -0.2228242
97 89 1.391216
97 108 0.5
97 114 -1.129507
97 115 0.8234455
98 45 1.0
98 46 0.5516685
98 47 0.4313726
98 81 0.04666806
98 82 0.01716691
98 83 0.02971164
98 85 -0.05329393
98 86 -0.09834317
98 89 -0.5255218
99 39 1.0
99 40 1.0
100 36 1.0
100 116 46.25822
101 36 1.0
101 117 80.14545
102 36 1.0
102 118 92.76208
103 36 1.0
103 119 161.4692
104 116 -1.0
104 118 2.5
104 120 1.0
105 117 -1.0
105 119 2.5
105 121 1.0
106 116 -3.350429e-05
106 118 3.350429e-05
106 122 1.010898
107 117 -4.138639e-05
107 119 4.138639e-05
107 123 1.006232
108 36 -0.004161268
108 124 1.0
109 39 -1.988119
109 40 -2.724422
109 120 -0.9566194
109 121 -0.0005799192
109 124 -0.0428007
109 125 1.0
110 39 -3.31431e-05
110 40 -4.113008e-05
110 122 -0.9838643
110 123 -0.01613573
110 126 1.0
111 36 2.5
111 125 -1.0
111 127 33.71533
112 36 3.327198
112 126 -100000.0
112 128 1036.91
113 127 0.9697149
113 128 -1.008828
113 129 0.920335
114 36 1.0
114 129 1.02783
114 130 -99.12431
115 36 -0.5779212
115 126 -11579.74
115 131 1.0
116 126 -1.0
116 130 0.003298062
116 132 0.01012161
117 36 -0.6073953
117 76 1.0
118 36 -0.4790423
118 77 1.0
119 36 -25.84199
119 78 124.714
120 78 -2.413012
120 79 1.0
121 79 -0.02802125
121 80 0.02802125
121 125 0.01758925
121 126 -842.1876
121 129 -0.3852808
121 131 0.02707635
121 132 5.341997
122 37 1.0
122 39 1.025185
122 40 -0.5953764
122 76 -0.06690976
122 77 -0.001184895
122 80 -0.000964388
123 90 -1.0
124 39 1.0
124 91 -0.9838643
125 40 1.0
125 92 -0.06658712
126 36 0.4185035
126 93 -0.4185035
127 36 -0.2548846
127 93 -0.7362677
127 94 1.0
128 36 -0.6633122
128 93 -0.138192
128 95 1.0
129 36 1.0
129 96 1.0
129 130 -99.12431
130 97 0.9967019
130 126 99.12431
130 130 -0.3269181
131 96 -0.3852808
131 97 -0.3852808
131 98 0.04633954
131 125 0.005863083
131 131 -0.01521769
131 132 1.780666
132 38 1.0
132 39 1.007612
132 40 0.4377387
132 90 0.07861369
132 91 0.0773452
132 92 0.005234659
132 94 -0.2430956
132 95 -0.004198599
132 98 -0.009455238
