%%MatrixMarket matrix coordinate real general
% migrated from Universal blas/matrices/west0167.hpp (universal#1210)
167 167 506
1 12 8.193102
1 19 -1.0
1 21 0.5833426
2 13 0.4485972
2 20 -1.0
2 22 0.9288008
3 7 0.03970141
3 12 0.5576101
3 14 0.5833426
3 19 1.0
4 3 -0.778805
4 6 -0.778805
4 7 0.5179087
4 13 0.5576101
4 14 0.4166574
4 20 1.0
5 1 1.0
5 4 0.0841716
5 7 -1.073291
5 10 -1.073291
5 14 1.989119
5 17 -1.989119
6 8 1.0
6 15 -1.0
7 16 1.0
8 9 1.0
9 3 1.0
10 12 1.0
10 13 1.0
11 6 1.0
12 19 1.0
12 20 1.0
13 23 48.17647
14 24 83.5
15 25 96.65138
16 26 168.2706
17 23 -1.0
17 25 2.5
17 27 1.0
18 24 -1.0
18 26 2.5
18 28 1.0
19 23 -3.347484e-05
19 25 3.347484e-05
19 29 1.010455
20 24 -4.136539e-05
20 26 4.136539e-05
20 30 1.005978
21 31 1.0
22 3 -2.334253
22 27 -0.09840023
22 28 -0.4989523
22 31 -0.4026475
22 32 1.0
23 3 -4.111957e-05
23 29 -0.4
23 30 -0.6
23 33 1.0
24 32 -1.0
24 34 7.359041
25 33 -316220.0
25 35 1080.859
26 34 0.002450037
26 35 -0.1497328
26 36 0.09812971
27 36 73.82816
27 37 -21599.43
28 33 -12323.69
28 38 1.0
29 33 -1.0
29 37 0.8191182
29 39 8.422065e-05
30 40 109.8688
31 41 191.3846
32 42 221.7339
33 43 387.0092
34 40 -1.0
34 42 2.5
34 44 1.0
35 41 -1.0
35 43 2.5
35 45 1.0
36 40 -3.30811e-05
36 42 3.30811e-05
36 46 1.00453
37 41 -4.108467e-05
37 43 4.108467e-05
37 47 1.002591
38 48 1.0
39 6 -2.333801
39 44 -0.09848616
39 45 -0.4987667
39 48 -0.4027471
39 49 1.0
40 6 -4.097851e-05
40 46 -0.4
40 47 -0.6
40 50 1.0
41 49 -1.0
41 51 59.4145
42 50 -316225.0
42 52 2494.29
43 51 0.9831275
43 52 -1.014204
43 53 0.9641177
44 53 1.012233
44 54 -128.3305
45 50 -26483.14
45 55 1.0
46 50 -1.0
46 54 0.004845742
46 56 0.007830141
47 57 1.0
48 58 1.0
49 59 130.0
50 59 -2.433767
50 60 1.0
51 32 1.5
51 33 -43103.15
51 36 -0.1364549
51 38 0.2880192
51 39 2.506886
51 60 -1.634607
51 61 1.634607
52 1 1.0
52 3 -2.753073
52 57 -0.1222209
52 58 -0.1990257
52 61 -0.7636881
53 62 1.0
54 63 1.0
55 64 300.0
56 64 -2.851891
56 65 1.0
57 49 0.04158793
57 50 -1623.493
57 53 -1.631316
57 55 0.01971496
57 56 8.603143
57 65 -0.06130289
57 66 0.06130289
58 4 1.0
58 6 -36.70984
58 62 -0.0199474
58 63 -0.03666831
58 66 -0.06568211
59 67 -1.138352
60 68 -0.4
61 3 1.0
61 69 -0.6
62 70 -0.4362416
63 70 -0.7680425
63 71 1.0
64 70 -0.1430279
64 72 1.0
65 37 -21599.43
65 73 5.440092
66 33 21599.43
66 37 -17692.49
66 74 0.3092918
67 32 0.5
67 38 -1.069855
67 39 0.8356287
67 73 -0.7423272
67 74 -0.2333258
67 75 1.475653
68 2 1.0
68 3 0.410307
68 67 0.05148402
68 68 0.01809072
68 69 0.02713609
68 71 -0.05450672
68 72 -0.08678148
68 75 -0.4890926
69 76 -1.138368
70 77 -0.4
71 6 1.0
71 78 -0.6
72 79 -1.0
73 79 -19.24
73 80 1.0
74 79 -3.803
74 81 1.0
75 54 -128.3305
75 82 1.150527
76 50 128.3305
76 54 -0.6218564
76 83 0.9951543
77 49 0.01386264
77 55 -0.01386264
77 56 2.867714
77 82 -1.876872
77 83 -1.631316
77 84 1.898659
78 5 1.0
78 6 0.6275943
78 76 0.122353
78 77 0.04299242
78 78 0.06448863
78 80 -0.005170901
78 81 -0.007756352
78 84 -0.1250953
79 12 -1.0
79 13 -1.0
79 85 -1.0
80 12 -1.0
80 13 -1.0
80 86 -1.0
81 85 -1.0
81 87 1.0
82 86 -1.0
82 88 1.0
83 12 1.0
83 13 1.0
83 85 0.07119924
83 86 0.9288008
83 87 -1.0
83 89 1.0
84 12 1.0
84 13 1.0
84 85 0.07119924
84 86 0.9288008
84 88 -1.0
84 90 1.0
85 89 1.0
85 91 -1.0
86 90 1.0
86 92 -1.0
87 8 1.0
87 93 64.13419
88 8 1.0
88 94 111.4061
89 8 1.0
89 95 129.006
90 8 1.0
90 96 224.8509
91 93 -1.0
91 95 2.5
91 97 1.0
92 94 -1.0
92 96 2.5
92 98 1.0
93 93 -3.329921e-05
93 95 3.329921e-05
93 99 1.007812
94 94 -4.124018e-05
94 96 4.124018e-05
94 100 1.004467
95 8 -0.002960295
95 101 1.0
96 12 -1.256971
96 13 -2.056958
96 97 -0.002381688
96 98 -0.9128863
96 101 -0.08473201
96 102 1.0
97 12 -3.304109e-05
97 13 -4.105677e-05
97 99 -0.07119924
97 100 -0.9288008
97 103 1.0
98 8 2.5
98 9 -1.0
98 102 -1.0
98 104 11.6322
99 8 12.8027
99 9 -12.8027
99 103 -316225.0
99 105 1446.466
100 104 0.002753677
100 105 -0.09777841
100 106 0.05423352
101 8 1.0
101 9 -1.0
101 106 86.17197
101 107 -18838.84
102 8 -1.158634
102 103 -19078.73
102 108 1.0
103 103 -1.0
103 107 0.7627102
103 109 9.356789e-05
104 15 1.0
104 110 64.13419
105 15 1.0
105 111 111.4061
106 15 1.0
106 112 129.006
107 15 1.0
107 113 224.8509
108 110 -1.0
108 112 2.5
108 114 1.0
109 111 -1.0
109 113 2.5
109 115 1.0
110 110 -3.329921e-05
110 112 3.329921e-05
110 116 1.007812
111 111 -4.124018e-05
111 113 4.124018e-05
111 117 1.004467
112 15 -0.002960295
112 118 1.0
113 19 -1.651883
113 20 -2.487382
113 114 -0.2440815
113 115 -0.2804677
113 118 -0.4754508
113 119 1.0
114 19 -3.304109e-05
114 20 -4.105677e-05
114 116 -0.5833426
114 117 -0.4166574
114 120 1.0
115 15 2.5
115 16 -1.0
115 119 -1.0
115 121 17.75885
116 15 11.50454
116 16 -11.50454
116 120 -316225.0
116 122 1446.466
117 121 0.9416891
117 122 -1.021059
117 123 0.8544712
118 15 1.0
118 16 -1.0
118 123 1.053028
118 124 -230.2119
119 15 -1.041151
119 120 -19078.73
119 125 1.0
120 120 -1.0
120 124 0.008375313
120 126 0.004380204
121 120 -1.0
121 124 0.008375313
121 127 0.004343824
122 123 -0.9916247
122 127 0.9496426
122 128 0.9416891
123 127 -1.0
123 129 1.008375
124 19 -0.8684366
124 20 -1.184196
124 114 -0.5065961
124 118 -0.4934039
124 130 1.0
125 19 -0.7864303
125 20 -1.299009
125 115 -0.5412417
125 118 -0.4587583
125 131 1.0
126 116 -4454.855
126 119 -1.0
126 120 4045.897
126 123 -16.93509
126 125 -1.179735
126 128 18.64689
126 129 98.17896
126 130 1.818855
126 132 18.64689
127 117 -3585.116
127 119 -1.0
127 120 4045.897
127 123 -16.93509
127 125 -1.73476
127 128 15.00638
127 129 144.3688
127 131 2.204099
127 133 15.00638
128 132 0.9708647
128 134 -1.0
129 133 0.9259004
129 135 -1.0
130 8 -1.251715
130 136 1.0
131 8 -1.107239
131 137 1.0
132 8 -33.72293
132 138 173.9733
133 138 -2.579451
133 139 1.0
134 102 1.5
134 103 -41483.94
134 106 -0.181629
134 108 0.2324133
134 109 2.646191
134 139 -1.679521
134 140 1.679521
135 10 1.0
135 12 3.101527
135 13 -1.881033
135 136 -0.01113786
135 137 -0.1642071
135 140 -0.5262788
136 9 1.0
136 141 -1.138368
137 12 1.0
137 142 -0.1881278
138 13 1.0
138 143 -0.9288008
139 8 0.5838029
139 144 -0.5838029
140 8 -0.5481165
140 144 -1.126082
140 145 1.0
141 8 -1.295472
141 144 -0.1987044
141 146 1.0
142 8 1.0
142 107 -18838.84
142 147 5.594713
143 103 18838.84
143 107 -14368.57
143 148 0.341335
144 102 0.5
144 108 -0.6473141
144 109 0.8820637
144 147 -1.016162
144 148 -0.2612684
144 149 1.77743
145 11 1.0
145 12 0.4651061
145 13 0.4400631
145 141 0.05816184
145 142 0.009611887
145 143 0.04745458
145 145 -0.007475503
145 146 -0.1092374
145 149 -0.499992
146 15 -1.251715
146 150 1.0
147 15 -1.107239
147 151 1.0
148 15 -33.72293
148 152 173.9733
149 152 -2.579451
149 153 1.0
150 119 0.06147894
150 120 -2650.624
150 123 -0.694101
150 125 0.05035738
150 126 7.371192
150 153 -0.09643205
150 154 0.09643205
151 17 1.0
151 19 3.001245
151 20 -1.820214
151 150 -0.08830315
151 151 -0.07128111
151 154 -0.007651389
152 16 1.0
152 155 -1.138368
153 19 1.0
153 156 -0.5833426
154 20 1.0
154 157 -0.4166574
155 15 0.5838029
155 158 -0.5838029
156 15 -0.5481165
156 158 -1.126082
156 159 1.0
157 15 -1.295472
157 158 -0.1987044
157 160 1.0
158 15 1.0
158 124 -230.2119
158 161 1.190037
159 120 230.2119
159 124 -1.928097
159 162 0.9916247
160 119 0.02049298
160 125 -0.0295245
160 126 2.457064
160 161 -0.8260059
160 162 -0.694101
160 163 0.8523367
161 18 1.0
161 19 0.9217195
161 20 0.6424803
161 155 0.09362885
161 156 0.04797897
161 157 0.03426938
161 159 -0.09859625
161 160 -0.07888591
161 163 -0.1009987
162 8 -63.53235
162 164 166.8133
163 8 -127.6046
163 165 155.8233
164 164 14.73793
164 166 -1.0
165 165 11.78559
165 167 -1.0
166 9 1.0
166 21 1.0
166 91 -1.0
166 134 1.03001
166 166 -1.0
167 9 1.0
167 22 2.229172
167 92 -1.0
167 135 1.08003
167 167 -1.0
