%%MatrixMarket matrix coordinate real general
% migrated from Universal blas/matrices/wilk21.hpp (universal#1210)
21 21 60
1 1 10.0
1 2 1.0
2 1 1.0
2 2 9.0
2 3 1.0
3 2 1.0
3 3 8.0
3 4 1.0
4 3 1.0
4 4 7.0
4 5 1.0
5 4 1.0
5 5 6.0
5 6 1.0
6 5 1.0
6 6 5.0
6 7 1.0
7 6 1.0
7 7 4.0
7 8 1.0
8 7 1.0
8 8 3.0
8 9 1.0
9 8 1.0
9 9 2.0
9 10 1.0
10 9 1.0
10 10 1.0
10 11 1.0
11 10 1.0
11 12 1.0
12 11 1.0
12 12 1.0
12 13 1.0
13 12 1.0
13 13 2.0
13 14 1.0
14 13 1.0
14 14 3.0
14 15 1.0
15 14 1.0
15 15 4.0
15 16 1.0
16 15 1.0
16 16 5.0
16 17 1.0
17 16 1.0
17 17 6.0
17 18 1.0
18 17 1.0
18 18 7.0
18 19 1.0
19 18 1.0
19 19 8.0
19 20 1.0
20 19 1.0
20 20 9.0
20 21 1.0
21 20 1.0
21 21 10.0
